%Chk=BLIND01965
%Mem=1GB
%NProcShared=48
#T M05/Gen test Massage SCF=(fermi,maxcyc=60)

M05 opt

0 1
  6         0.38789883        0.92108512        0.20553737
  6         0.82596865        0.37982904       -1.03581807
 16        -0.03755816       -0.02100253        1.62679521
 16         0.98421524       -1.35308208       -1.36226168
  6        -0.70521454       -1.47457979        0.86163497
  6        -0.29695198       -2.00108062       -0.32316990
  6         0.41646290        2.29985682        0.14658042
  7         1.16207357        1.22690414       -1.97781450
 16         1.00114871        2.78403151       -1.41179820
  6        -1.71907914       -2.10222644        1.64216551
  7        -2.52318509       -2.59075928        2.32476517
  6        -0.86981817       -3.20525650       -0.82886420
  7        -1.28729565       -4.19867622       -1.26447405
  6         0.07407200        3.23031089        1.15761560
  7        -0.19393971        4.00808991        1.97878881
  6        -0.38789884       -0.92108512        5.85145266
  6        -0.82596901       -0.37982879        7.09280787
 16         0.03755868        0.02100225        4.43019480
 16        -0.98421557        1.35308239        7.41925114
  6         0.70521494        1.47457958        5.19535500
  6         0.29695203        2.00108065        6.38015966
  6        -0.41646304       -2.29985681        5.91040984
  7        -1.16207431       -1.22690371        8.03480434
 16        -1.00114939       -2.78403118        7.46878836
  6         1.71907984        2.10222602        4.41482468
  7         2.52318605        2.59075868        3.73222520
  6         0.86981816        3.20525657        6.88585394
  7         1.28729559        4.19867633        7.32146374
  6        -0.07407189       -3.23031108        4.89937493
  7         0.19394002       -4.00809026        4.07820194

@blind-aug.gbs/N

