%Chk=BLIND02099
%Mem=1GB
%NProcShared=48
#T M05/Gen test Massage SCF=(fermi,maxcyc=60)

M05 opt

0 1
  6         0.75673045        0.66654594       -0.15551349
  6         1.09840204       -0.67464184       -0.48763175
 16        -0.38250785        1.14069202        1.09582109
 16         0.39786389       -2.10002206        0.29475297
  6        -1.53044768       -0.20826488        1.01414179
  6        -1.21764536       -1.49259604        0.69745233
  6         1.50879171        1.53900896       -0.91611546
  7         2.01395697       -0.85321273       -1.40835518
 16         2.57084239        0.62412911       -1.93585551
  6        -2.85980062        0.16631032        1.36571518
  7        -3.92261587        0.51433175        1.68272915
  6        -2.21182813       -2.51507150        0.70675344
  7        -2.98247886       -3.38483732        0.72979643
  6         1.49672626        2.95489818       -0.89936436
  7         1.50673358        4.11720087       -0.89241997
  6        -0.27477679       -0.03611518       11.07265896
  6         0.19944383       -1.27846054       10.56519521
 16         0.25095256        1.54846138       10.52380341
 16         1.38689289       -1.42929551        9.26066392
  6         0.57140386        1.20694453        8.81359895
  6         1.02310911        0.02543010        8.31597454
  6        -1.15660550       -0.26461581       12.10970708
  7        -0.25303666       -2.37198886       11.12850440
 16        -1.28950013       -1.97345777       12.36859848
  6         0.35113142        2.33242872        7.96751676
  7         0.18079441        3.28389964        7.32185323
  6         1.29477666       -0.13046201        6.92463118
  7         1.55690355       -0.29355342        5.80408809
  6        -1.84940937        0.68450688       12.89986993
  7        -2.41890313        1.44964140       13.56420565

@blind-aug.gbs/N

