%Chk=BLIND02304_mB
%Mem=1GB
%NProcShared=48
#T M05/Gen test Massage SCF=(fermi,maxcyc=60)

M05 opt

0 1
  6        -0.44443121       -0.89871233       10.27427869
  6        -0.51639698        0.01587071       11.36248154
 16        -0.40961304       -0.44998541        8.57547073
 16        -0.55064502        1.77643555       11.17856074
  6         0.46599059        1.08920093        8.66682595
  6         0.40693736        1.97059109        9.69993202
  6        -0.47832626       -2.19299815       10.75279572
  7        -0.59515761       -0.48844387       12.56967812
 16        -0.62114483       -2.15042078       12.47982108
  6         1.23711733        1.36426982        7.50029678
  7         1.83112733        1.55538737        6.51957295
  6         1.11616375        3.20700750        9.65287557
  7         1.65330760        4.23770744        9.64511243
  6        -0.44158292       -3.40309454       10.01829924
  7        -0.42179493       -4.40597774        9.43099213

@blind-aug.gbs/N

