%Chk=BLIND00594_mA
%Mem=1GB
%NProcShared=48
#T M05/Gen test Massage SCF=(fermi,maxcyc=60)

M05 opt

0 1
  6        -0.81386198       -0.61293841       -0.05517330
  6         0.24792333       -1.14122384        0.73181662
 16        -1.17741216        1.09555842       -0.24852920
 16         1.40765037       -0.14839203        1.62842497
  6         0.45337477        1.78487132       -0.15104178
  6         1.47599628        1.28997722        0.59526186
  6        -1.55776809       -1.64768023       -0.58547161
  7         0.34347771       -2.44558466        0.81767822
 16        -0.89337501       -3.15379080       -0.04229639
  6         0.60306837        2.97803481       -0.91592240
  7         0.66957363        3.95957959       -1.53506692
  6         2.73945747        1.94994080        0.64060313
  7         3.77511812        2.46983895        0.73026398
  6        -2.70377261       -1.57202674       -1.41379438
  7        -3.65070921       -1.52867843       -2.08649635

@blind-aug.gbs/N

