%Chk=BLIND00826
%Mem=1GB
%NProcShared=48
#T M05/Gen test Massage SCF=(fermi,maxcyc=60)

M05 opt

0 1
  6        -0.66003716       -0.74537833       -0.22331815
  6         0.08998219       -0.98178379        0.96302501
 16        -1.12030484        0.83799704       -0.83125953
 16         0.71527704        0.29884749        2.01353832
  6         0.26894688        1.80328633       -0.29992319
  6         0.99400259        1.58774011        0.82944747
  6        -1.03196899       -1.95012449       -0.78506242
  7         0.29625269       -2.22949561        1.30730357
 16        -0.44637409       -3.24061706        0.21320313
  6         0.55197507        2.89986039       -1.16508794
  7         0.72884375        3.79349405       -1.88711936
  6         2.06700239        2.45490523        1.19088628
  7         2.92961115        3.15165692        1.53926733
  6        -1.79246716       -2.17565982       -1.95806916
  7        -2.42298781       -2.37928691       -2.91309566
  6        -0.45133687       -0.91498452        5.72072077
  6        -1.35725396        0.16695624        5.53485771
 16         1.22108257       -0.93895720        5.18131817
 16        -0.93046256        1.69476880        4.74858408
  6         1.63944306        0.77557530        5.35300069
  6         0.78425110        1.81776786        5.17943392
  6        -1.10562131       -1.96956721        6.32493136
  7        -2.59041003       -0.00190562        5.94555442
 16        -2.76421774       -1.53268567        6.57596716
  6         3.01543977        0.98793756        5.65734420
  7         4.14933098        1.11149337        5.88143725
  6         1.23515691        3.16582905        5.29500595
  7         1.56468441        4.27904002        5.35067546
  6        -0.58702519       -3.23840331        6.68029239
  7        -0.18064685       -4.28810410        6.97025927

@blind-aug.gbs/N

