%Chk=BLIND02438
%Mem=1GB
%NProcShared=48
#T M05/Gen test Massage SCF=(fermi,maxcyc=60)

M05 opt

0 1
  6         0.31573233       -0.92194905       -0.30237719
  6         1.10210694       -0.36259806        0.74383890
 16        -0.52479100       -0.00038775       -1.54042483
 16         1.33695790        1.37511233        0.98837103
  6        -0.94354816        1.46005539       -0.62616537
  6        -0.20247341        2.00378193        0.37524049
  6         0.37195904       -2.29969328       -0.23942809
  7         1.71263139       -1.19580602        1.55061299
 16         1.40180566       -2.76088643        1.07645313
  6        -2.15018225        2.07293977       -1.07281576
  7        -3.12619553        2.54893638       -1.48756667
  6        -0.60674625        3.21188545        1.01632652
  7        -0.88215150        4.20903152        1.54621121
  6        -0.25077653       -3.24477420       -1.09042216
  7        -0.74677304       -4.03438625       -1.78439349
  6         0.35205289       -0.92097000        5.26176867
  6        -0.62583634       -0.40527556        4.36532092
 16         1.48230627        0.04937774        6.19422199
 16        -0.88562288        1.32020896        4.06565029
  6         0.49933491        1.49569373        6.48758093
  6        -0.43797757        1.99788699        5.64088660
  6         0.32581851       -2.30075868        5.23351708
  7        -1.35108204       -1.27154115        3.70089440
 16        -0.87399818       -2.81712278        4.09394059
  6         0.81373976        2.14608590        7.71608786
  7         1.12170268        2.65375526        8.71539946
  6        -1.14204481        3.19843967        5.95218151
  7        -1.71829422        4.18804089        6.15105880
  6         1.13388743       -3.21043374        5.95786808
  7         1.79441972       -3.97142524        6.53725132

@blind-aug.gbs/N

