%Chk=BLIND02180
%Mem=1GB
%NProcShared=48
#T M05/Gen test Massage SCF=(fermi,maxcyc=60)

M05 opt

0 1
  6         0.60247018       -0.79862575        0.20083698
  6         0.98592090        0.39226633        0.87948876
 16        -0.18526570       -0.86023241       -1.36893798
 16         0.69857875        2.02500884        0.25805919
  6        -1.15034785        0.62585554       -1.30350781
  6        -0.79648391        1.76885949       -0.65855328
  6         1.00732694       -1.89887207        0.92943308
  7         1.62003167        0.25937250        2.01883190
 16         1.83619946       -1.35711933        2.35221236
  6        -2.36080281        0.54021245       -2.05087231
  7        -3.32393570        0.43063730       -2.69240279
  6        -1.62624363        2.92774752       -0.70773923
  7        -2.25629761        3.90375125       -0.74481809
  6         0.84102504       -3.26994739        0.61691972
  7         0.72157404       -4.39989210        0.37186400
  6        -0.60246995        0.79862593        7.73308300
  6        -0.98592102       -0.39226607        7.05443126
 16         0.18526597        0.86023240        9.30285796
 16        -0.69857935       -2.02500865        7.67586088
  6         1.15034768       -0.62585584        9.23742781
  6         0.79648340       -1.76885970        8.59247332
  6        -1.00732639        1.89887234        7.00448688
  7        -1.62003177       -0.25937208        5.91508813
 16        -1.83619908        1.35711981        5.58170762
  6         2.36080267       -0.54021309        9.98479230
  7         3.32393560       -0.43063820       10.62632277
  6         1.62624278       -2.92774798        8.64165930
  7         2.25629647       -3.90375189        8.67873818
  6        -0.84102409        3.26994762        7.31700019
  7        -0.72157275        4.39989231        7.56205588

@blind-aug.gbs/N

