%Chk=BLIND01961
%Mem=1GB
%NProcShared=48
#T M05/Gen test Massage SCF=(fermi,maxcyc=60)

M05 opt

0 1
  6         0.25960911        0.62643944       -0.76242091
  6         0.17852133       -0.74122437       -1.14809841
 16         0.70984535        1.20252779        0.83567989
 16         0.49116182       -2.10018026       -0.05718908
  6         0.05164410       -0.09879366        1.84436998
  6        -0.03248668       -1.40780948        1.48793817
  6         0.00074300        1.43226371       -1.85280561
  7        -0.11424405       -0.99839833       -2.39950162
 16        -0.28767539        0.42961633       -3.23712480
  6        -0.36030838        0.34679149        3.13388101
  7        -0.65990120        0.75306014        4.18096408
  6        -0.53677412       -2.38581407        2.39521053
  7        -0.91313726       -3.22027562        3.11141639
  6        -0.01192682        2.84677532       -1.91734113
  7        -0.01754425        4.00680604       -1.99077874
  6         0.48821907        0.30916244       11.53333379
  6        -0.61103258       -0.55614640       11.79546561
 16         1.48712382        0.26737664       10.08801034
 16        -1.17610207       -1.80883310       10.67919466
  6         0.29064107       -0.24619182        8.88434986
  6        -0.76364477       -1.07071056        9.12161405
  6         0.69506185        1.13819383       12.61741230
  7        -1.21429356       -0.43101770       12.95230571
 16        -0.46079603        0.75113957       13.84989278
  6         0.55747188        0.25982899        7.57903997
  7         0.82952737        0.67676824        6.52863982
  6        -1.64299445       -1.46118697        8.06889650
  7        -2.36698219       -1.82840571        7.23708025
  6         1.68458956        2.13733369       12.78391421
  7         2.49570177        2.95487842       12.94143727

@blind-aug.gbs/N

