%Chk=BLIND02150
%Mem=1GB
%NProcShared=48
#T M05/Gen test Massage SCF=(fermi,maxcyc=60)

M05 opt

0 1
  6        -0.28220143       -0.47186308       -0.85954435
  6         0.60046508       -1.23954768       -0.04875040
 16        -0.30053851        1.28285751       -0.95512701
 16         1.81614652       -0.54037505        1.03192746
  6         0.17821437        1.70057364        0.70029770
  6         1.01887144        0.97615159        1.48525148
  6        -1.07293416       -1.31607971       -1.61276627
  7         0.52201402       -2.54463488       -0.14068985
 16        -0.63256547       -2.95657447       -1.26681989
  6        -0.37685022        2.93420534        1.14879048
  7        -0.83368945        3.95655602        1.46070398
  6         1.37765487        1.42678145        2.78991585
  7         1.72001475        1.76965791        3.84639661
  6        -2.07295080       -0.97552534       -2.55571796
  7        -2.89045205       -0.71424663       -3.33963189
  6        -0.28220155        0.47186299        5.06417564
  6         0.60046514        1.23954765        5.87496935
 16        -0.30053873       -1.28285761        4.96859319
 16         1.81614671        0.54037509        6.95564709
  6         0.17821440       -1.70057356        6.62401788
  6         1.01887164       -0.97615146        7.40897143
  6        -1.07293436        1.31607956        4.31095375
  7         0.52201412        2.54463484        5.78302975
 16        -0.63256553        2.95657435        4.65689986
  6        -0.37685018       -2.93420518        7.07251091
  7        -0.83368940       -3.95655581        7.38442460
  6         1.37765526       -1.42678118        8.71363580
  7         1.72001530       -1.76965753        9.77011654
  6        -2.07295117        0.97552513        3.36800227
  7        -2.89045257        0.71424637        2.58408850

@blind-aug.gbs/N

