%Chk=BLIND02617_mB
%Mem=1GB
%NProcShared=48
#T M05/Gen test Massage SCF=(fermi,maxcyc=60)

M05 opt

0 1
  6         0.31248435        0.60306107       13.49467893
  6         0.63706194        1.10017378       14.78826116
 16         0.18037092       -1.09643560       13.06715846
 16         0.93237498        0.07397393       16.20045534
  6        -0.42577806       -1.76616926       14.59299014
  6        -0.12465274       -1.30059368       15.83404089
  6         0.18761601        1.65587569       12.61077142
  7         0.75450918        2.39858162       14.92318067
 16         0.50675961        3.13740015       13.45223396
  6        -1.25569538       -2.91040749       14.41120516
  7        -1.90648008       -3.85312551       14.21383485
  6        -0.62932568       -1.94340174       17.00282015
  7        -0.99377565       -2.45233407       17.98215168
  6        -0.11411808        1.61174491       11.22795637
  7        -0.35157603        1.59372520       10.09024598

@blind-aug.gbs/N

