%Chk=BLIND01233_mA
%Mem=1GB
%NProcShared=48
#T M05/Gen test Massage SCF=(fermi,maxcyc=60)

M05 opt

0 1
  6         0.79670363       -0.26410305        0.58019118
  6         0.69250939        1.13743235        0.35509402
 16         0.26957516       -1.51122301       -0.54023018
 16        -0.02317210        1.85923328       -1.09452378
  6        -1.12043285       -0.70449636       -1.28935761
  6        -1.23295817        0.63219288       -1.50900273
  6         1.43927834       -0.49498169        1.77981447
  7         1.19050094        1.93356674        1.26944323
 16         1.86957211        1.02698880        2.48923652
  6        -2.13821180       -1.61239573       -1.70279974
  7        -2.92901681       -2.39318663       -2.04366045
  6        -2.37707934        1.17576423       -2.16433385
  7        -3.27658409        1.65864901       -2.71988730
  6         1.76003950       -1.73647468        2.38062715
  7         2.03938797       -2.74635153        2.88382601

@blind-aug.gbs/N

