%Chk=BLIND00506_mB
%Mem=1GB
%NProcShared=48
#T M05/Gen test Massage SCF=(fermi,maxcyc=60)

M05 opt

0 1
  6        -0.47133421        0.88731742        5.50809551
  6        -1.24769399       -0.03017787        4.74566877
 16         0.71919483        0.44180313        6.72163342
 16        -1.11442392       -1.79081108        4.87604570
  6         1.32708153       -1.07561166        6.03457579
  6         0.59706305       -1.95953585        5.30423676
  6        -0.84629348        2.17975801        5.20100255
  7        -2.13674247        0.47047606        3.92299115
 16        -2.12586706        2.13143550        4.03259211
  6         2.69108221       -1.33019758        6.35981078
  7         3.79731660       -1.50543543        6.67082558
  6         1.17166455       -3.17816212        4.83655624
  7         1.58964364       -4.19539660        4.46045304
  6        -0.34209662        3.39135247        5.73297327
  7         0.05337438        4.39518817        6.16542267

@blind-aug.gbs/N

