%Chk=BLIND02517
%Mem=1GB
%NProcShared=48
#T M05/Gen test Massage SCF=(fermi,maxcyc=60)

M05 opt

0 1
  6         0.37009302        0.68186693        0.66271981
  6        -0.86669874        1.06898798        0.07423863
 16         0.87026492       -0.97459070        0.97011666
 16        -2.10251900       -0.07169032       -0.47910542
  6         0.08950616       -1.80417410       -0.38868031
  6        -1.09010187       -1.44444462       -0.96031275
  6         1.08594817        1.80650553        1.02055028
  7        -1.10942588        2.35282329       -0.02925265
 16         0.15686425        3.21471546        0.62233625
  6         0.80492304       -2.95644617       -0.82633020
  7         1.41097680       -3.90017645       -1.13172343
  6        -1.65659824       -2.21053695       -2.02150375
  7        -2.16912347       -2.82077139       -2.86758764
  6         2.35577820        1.87920306        1.64297715
  7         3.39290323        1.95760972        2.16193763
  6         0.12938509       -0.11765826        6.78824343
  6         1.07693439       -0.83166193        7.57448496
 16        -1.52238560        0.23935264        7.27064724
 16         0.74983413       -1.45529702        9.19888425
  6        -1.31408275        0.42183638        9.02205573
  6        -0.41297338       -0.25263761        9.78411267
  6         0.68182494        0.18935726        5.56111064
  7         2.25052278       -1.06501725        7.03960589
 16         2.29091533       -0.45170822        5.49262904
  6        -2.23687615        1.33973292        9.60257959
  7        -3.02462869        2.07816782       10.03310584
  6        -0.35924613       -0.06605692       11.19699730
  7        -0.29946384        0.03257421       12.35355430
  6         0.08662090        0.87850729        4.47668783
  7        -0.38915044        1.43403185        3.57328869

@blind-aug.gbs/N

