%Chk=BLIND01095
%Mem=1GB
%NProcShared=48
#T M05/Gen test Massage SCF=(fermi,maxcyc=60)

M05 opt

0 1
  6         0.68647143        0.32653586       -0.68061752
  6         0.65184873       -1.08909318       -0.53701272
 16         0.31874793        1.48229479        0.59119904
 16         0.19596438       -1.92427655        0.95604673
  6        -0.91351430        0.58411091        1.49613970
  6        -0.95871086       -0.76677067        1.64008511
  6         1.12171348        0.65385143       -1.94897556
  7         1.01380837       -1.80897599       -1.57075059
 16         1.46644026       -0.80519387       -2.81913464
  6        -1.87165681        1.42974644        2.12697498
  7        -2.61467389        2.16073020        2.64154410
  6        -1.96948413       -1.38836849        2.43122066
  7        -2.75638247       -1.93499896        3.08918135
  6         1.31304688        1.94074284       -2.50796613
  7         1.48453292        2.98907469       -2.97986526
  6        -0.64785249       -0.66569436        8.01073754
  6        -0.33690746        0.44094010        7.17139254
 16         0.43367862       -1.36425887        9.20690421
 16         1.19728121        1.32325198        7.22016959
  6         1.32154479        0.08169489        9.72171823
  6         1.62395370        1.14522957        8.93109387
  6        -1.90013415       -1.15168054        7.69307217
  7        -1.23677955        0.79957518        6.28851592
 16        -2.55002498       -0.21879511        6.38456415
  6         1.75204733        0.02020187       11.07891233
  7         2.10180751       -0.08623773       12.18233040
  6         2.38648917        2.24099628        9.43286764
  7         3.02931710        3.14088473        9.79049756
  6        -2.59115495       -2.24493392        8.26966193
  7        -3.16894660       -3.14491784        8.72494390

@blind-aug.gbs/N

