%Chk=BLIND00291
%Mem=1GB
%NProcShared=48
#T M05/Gen test Massage SCF=(fermi,maxcyc=60)

M05 opt

0 1
  6        -0.95174841       -0.03913018       -0.36572217
  6        -0.48240996       -1.28315292        0.14217102
 16        -0.46517333        1.54330732        0.22389883
 16         0.70644484       -1.43818823        1.44492835
  6         1.20987887        1.20864839        0.69963571
  6         1.67111292        0.02561975        1.18476502
  6        -1.90028415       -0.26488936       -1.34276667
  7        -0.99354795       -2.37539201       -0.37126033
 16        -2.13403656       -1.97380792       -1.51534636
  6         2.06519462        2.34122410        0.57003293
  7         2.71748648        3.29812292        0.46976826
  6         3.03200704       -0.12481082        1.58386372
  7         4.12423236       -0.28393424        1.94807482
  6        -2.62866544        0.68645565       -2.09746648
  7        -3.24204871        1.45333102       -2.71936602
  6        -0.18099108       -0.76027419        5.90682479
  6        -1.27218279        0.14195377        6.05212451
 16         1.51545887       -0.33190074        6.07135560
 16        -1.09527336        1.85601628        6.45867229
  6         1.40836023        0.94115134        7.30098577
  6         0.37226321        1.80809596        7.45116579
  6        -0.65370305       -2.00617100        5.54684181
  7        -2.47635366       -0.32864579        5.83679081
 16        -2.37927489       -1.93185549        5.39951370
  6         2.56546210        1.01751880        8.12946204
  7         3.53900546        1.05634153        8.76341720
  6         0.40660290        2.82944127        8.44596047
  7         0.40434230        3.69425440        9.22250363
  6         0.08541596       -3.18637554        5.28995901
  7         0.67666885       -4.16186460        5.06649304

@blind-aug.gbs/N

