%Chk=BLIND01416_mB
%Mem=1GB
%NProcShared=48
#T M05/Gen test Massage SCF=(fermi,maxcyc=60)

M05 opt

0 1
  6        -0.60959089       -0.79750703        5.91699618
  6         0.09592819       -0.88770591        7.14985207
 16        -1.12243660        0.69890832        5.15132849
 16         0.60491277        0.51226701        8.10672138
  6         0.18899066        1.78248121        5.65147889
  6         0.87116527        1.70668364        6.82473784
  6        -0.89236727       -2.06537647        5.45025449
  7         0.35024597       -2.08731679        7.61257904
 16        -0.28769814       -3.22953449        6.58336433
  6         0.45471251        2.81360830        4.70424159
  7         0.61839322        3.64944071        3.91317533
  6         1.88003718        2.66029545        7.15145473
  7         2.68843597        3.43157802        7.47167455
  6        -1.58508502       -2.43406989        4.27153666
  7        -2.15935987       -2.75477546        3.31317751

@blind-aug.gbs/N

