%Chk=BLIND02609
%Mem=1GB
%NProcShared=48
#T M05/Gen test Massage SCF=(fermi,maxcyc=60)

M05 opt

0 1
  6        -0.07499971       -0.04823391       -1.01644353
  6        -0.33876650       -1.28537383       -0.36395708
 16        -0.39537648        1.54164843       -0.33957611
 16        -1.01101953       -1.42300486        1.26813418
  6        -0.11289928        1.22183593        1.38148422
  6        -0.35931336        0.04546971        2.01637530
  6         0.40371005       -0.28741817       -2.28881575
  7        -0.09605093       -2.38470699       -1.03508730
 16         0.45415548       -1.99907910       -2.55807151
  6         0.37292136        2.35927687        2.08950688
  7         0.74504219        3.31987138        2.62800228
  6        -0.14077252       -0.09281520        3.41889414
  7        -0.00522584       -0.24187632        4.56359236
  6         0.77928447        0.65353146       -3.27812161
  7         1.08309664        1.41175152       -4.10510192
  6        -0.04866165       -0.71232023        9.81718314
  6         0.22365028        0.59435705        9.32294902
 16         0.43467572       -1.31922011       11.39407063
 16         1.07616178        1.84507039       10.24138716
  6         0.34131828        0.16857612       12.35421063
  6         0.59760806        1.42183059       11.89452287
  6        -0.68691612       -1.45328805        8.84306757
  7        -0.15562965        0.86690535        8.09831676
 16        -0.86087010       -0.47951885        7.41957183
  6         0.00467522       -0.06650233       13.71894475
  7        -0.24882947       -0.31030995       14.82686454
  6         0.53966270        2.55022017       12.76476492
  7         0.53287947        3.49372538       13.44349759
  6        -1.12591833       -2.79800034        8.90783150
  7        -1.48436095       -3.90324889        8.94008732

@blind-aug.gbs/N

