%Chk=BLIND02609_mB
%Mem=1GB
%NProcShared=48
#T M05/Gen test Massage SCF=(fermi,maxcyc=60)

M05 opt

0 1
  6        -0.04866165       -0.71232023        9.81718314
  6         0.22365028        0.59435705        9.32294902
 16         0.43467572       -1.31922011       11.39407063
 16         1.07616178        1.84507039       10.24138716
  6         0.34131828        0.16857612       12.35421063
  6         0.59760806        1.42183059       11.89452287
  6        -0.68691612       -1.45328805        8.84306757
  7        -0.15562965        0.86690535        8.09831676
 16        -0.86087010       -0.47951885        7.41957183
  6         0.00467522       -0.06650233       13.71894475
  7        -0.24882947       -0.31030995       14.82686454
  6         0.53966270        2.55022017       12.76476492
  7         0.53287947        3.49372538       13.44349759
  6        -1.12591833       -2.79800034        8.90783150
  7        -1.48436095       -3.90324889        8.94008732

@blind-aug.gbs/N

