%Chk=BLIND01081
%Mem=1GB
%NProcShared=48
#T M05/Gen test Massage SCF=(fermi,maxcyc=60)

M05 opt

0 1
  6         0.22875940        0.91165248       -0.39707404
  6        -1.10185669        0.48638050       -0.66989494
 16         1.60923277       -0.15523413       -0.18597487
 16        -1.59273524       -1.20885330       -0.81063911
  6         0.82057475       -1.55937193        0.55600736
  6        -0.44893495       -1.97541104        0.30520738
  6         0.28384912        2.29087740       -0.39443497
  7        -2.00521320        1.41685061       -0.85971700
 16        -1.29240674        2.91726101       -0.75204875
  6         1.67474462       -2.27698926        1.44286071
  7         2.41572052       -2.84211944        2.13768127
  6        -0.97306813       -3.14968359        0.92190043
  7        -1.43110092       -4.11538102        1.37858476
  6         1.40723986        3.12543210       -0.17837913
  7         2.32018129        3.82552017       -0.01251605
  6         0.18700907       -0.33541374        7.54580764
  6        -1.02776972       -0.83003531        8.09851791
 16         0.90821965        1.22314861        7.91897699
 16        -2.00369473        0.04281045        9.29028088
  6         0.41336694        1.41004984        9.61140447
  6        -0.74267251        0.94196344       10.15187831
  6         0.67511682       -1.23434551        6.61899821
  7        -1.45837624       -1.99011634        7.66648774
 16        -0.41862752       -2.57434826        6.50523301
  6         1.34337370        2.16205123       10.38643414
  7         2.11932521        2.80028441       10.97102860
  6        -1.06797420        1.18841764       11.51839983
  7        -1.38718896        1.39014906       12.61764162
  6         1.84612885       -1.13409714        5.82915676
  7         2.79843895       -1.06421557        5.16634611

@blind-aug.gbs/N

