%Chk=BLIND_monomer
%Mem=1GB
%NProcShared=48
#T M05/Gen test Massage SCF=(fermi,maxcyc=60)

M05 opt

0 1
  6        -0.68617648       -0.73849905       -0.15776534
  6        -1.26591708        0.53579698        0.09893900
 16         0.86222014       -1.00614799       -0.94475237
 16        -0.49602283        2.07684620       -0.30973995
  6         1.75565719        0.42220208       -0.39184332
  6         1.21435498        1.64379847       -0.14216707
  6        -1.55657875       -1.73307428        0.24038438
  7        -2.45866377        0.55718342        0.64185518
 16        -3.00030985       -1.00149499        0.86107660
  6         3.15649520        0.19194895       -0.26644000
  7         4.29427109       -0.03724577       -0.20218394
  6         2.03188838        2.74297154        0.25456918
  7         2.66273291        3.67299364        0.55125115
  6        -1.38550466       -3.13626915        0.15704016
  7        -1.26597949       -4.29040470        0.08789701

@blind-aug.gbs/N

