%Chk=BLIND02244
%Mem=1GB
%NProcShared=48
#T M05/Gen test Massage SCF=(fermi,maxcyc=60)

M05 opt

0 1
  6        -0.33077120        0.50215666       -0.82434095
  6        -0.44403646       -0.91251605       -0.93250172
 16         0.90129793        1.35149479        0.09715080
 16         0.63256154       -2.05931219       -0.11986177
  6         1.15183719        0.20874856        1.42962340
  6         1.04582481       -1.14342895        1.34006105
  6        -1.29140116        1.10610249       -1.61030707
  7        -1.38702794       -1.38405919       -1.71113781
 16        -2.21163605       -0.12183437       -2.41663540
  6         1.53406220        0.84380003        2.64687577
  7         1.86623193        1.40468001        3.60930495
  6         1.31530101       -1.97805208        2.46466264
  7         1.55348760       -2.69754498        3.34586821
  6        -1.52662427        2.48894551       -1.80417226
  7        -1.72795592        3.61981649       -1.98219560
  6         0.33077226       -0.50215498        6.95898155
  6         0.44403497        0.91251808        7.06714045
 16        -0.90129549       -1.35149655        6.03749113
 16        -0.63256525        2.05931120        6.25449917
  6        -1.15183706       -0.20875253        4.70501708
  6        -1.04582712        1.14342529        4.79457763
  6         1.29140344       -1.10609803        7.74494830
  7         1.38702573        1.38406395        7.84577575
 16         2.21163625        0.12184156        8.55127486
  6        -1.53406114       -0.84380629        3.48776561
  7        -1.86623001       -1.40468814        2.52533722
  6        -1.31530502        1.97804645        3.66997498
  7        -1.55349307        2.69753776        2.78876851
  6         1.52662909       -2.48894037        7.93881527
  7         1.72796282       -3.61981075        8.11684006

@blind-aug.gbs/N

