%Chk=BLIND02422_mA
%Mem=1GB
%NProcShared=48
#T M05/Gen test Massage SCF=(fermi,maxcyc=60)

M05 opt

0 1
  6         0.43555988       -0.89588751        0.22086664
  6         0.45837679        0.03268208        1.29932135
 16         0.47716936       -0.46909711       -1.48343240
 16         0.50065931        1.79075615        1.09444064
  6        -0.40183931        1.07052661       -1.45142202
  6        -0.38943864        1.96518761       -0.42815668
  6         0.44803995       -2.18388037        0.71707411
  7         0.48279397       -0.45599099        2.51524177
 16         0.51299390       -2.11896863        2.44808364
  6        -1.11972427        1.33001359       -2.65491583
  7        -1.66902315        1.50807234       -3.66375618
  6        -1.09597456        3.20040039       -0.52301608
  7        -1.63234622        4.23053985       -0.56822984
  6         0.44452802       -3.40335962       -0.00266645
  7         0.45130647       -4.41373577       -0.57728808

@blind-aug.gbs/N

