%Chk=BLIND00506_mA
%Mem=1GB
%NProcShared=48
#T M05/Gen test Massage SCF=(fermi,maxcyc=60)

M05 opt

0 1
  6        -0.56483548       -0.82754141        0.19298963
  6         0.68909372       -0.82095159        0.86637273
 16        -1.49390863        0.60283368       -0.23052756
 16         1.54078302        0.64939899        1.36364815
  6        -0.18437192        1.75870570       -0.53580706
  6         1.01745105        1.77536871        0.09900625
  6        -0.97414992       -2.12958456       -0.01304081
  7         1.22129972       -1.98190068        1.16101493
 16         0.20659320       -3.20380282        0.66277529
  6        -0.52158512        2.74131198       -1.51144111
  7        -0.85100586        3.53465819       -2.29456102
  6         1.98697488        2.78092903       -0.18876782
  7         2.79425187        3.59723589       -0.37007722
  6        -2.16092386       -2.59039513       -0.63303248
  7        -3.13393669       -2.98633258       -1.13060206

@blind-aug.gbs/N

