%Chk=BLIND02606_mB
%Mem=1GB
%NProcShared=48
#T M05/Gen test Massage SCF=(fermi,maxcyc=60)

M05 opt

0 1
  6        -0.59513134        0.74088939        7.10263028
  6        -0.82456742       -0.53065565        6.50567219
 16        -0.05872949        1.00103462        8.75584356
 16        -0.57261743       -2.07545203        7.33314647
  6         0.96154451       -0.42978751        8.99229881
  6         0.75434970       -1.64879673        8.42773624
  6        -0.92630658        1.73959104        6.20919802
  7        -1.28232278       -0.54637948        5.27763603
 16        -1.50724490        1.01480576        4.74563267
  6         2.03979176       -0.20479043        9.89664875
  7         2.88899374        0.02006606       10.65789022
  6         1.61092236       -2.75043363        8.72205130
  7         2.26507434       -3.68237346        8.95550251
  6        -0.86247258        3.14195064        6.39488921
  7        -0.82534583        4.29548101        6.53303837

@blind-aug.gbs/N

