%Chk=BLIND01233
%Mem=1GB
%NProcShared=48
#T M05/Gen test Massage SCF=(fermi,maxcyc=60)

M05 opt

0 1
  6         0.79670363       -0.26410305        0.58019118
  6         0.69250939        1.13743235        0.35509402
 16         0.26957516       -1.51122301       -0.54023018
 16        -0.02317210        1.85923328       -1.09452378
  6        -1.12043285       -0.70449636       -1.28935761
  6        -1.23295817        0.63219288       -1.50900273
  6         1.43927834       -0.49498169        1.77981447
  7         1.19050094        1.93356674        1.26944323
 16         1.86957211        1.02698880        2.48923652
  6        -2.13821180       -1.61239573       -1.70279974
  7        -2.92901681       -2.39318663       -2.04366045
  6        -2.37707934        1.17576423       -2.16433385
  7        -3.27658409        1.65864901       -2.71988730
  6         1.76003950       -1.73647468        2.38062715
  7         2.03938797       -2.74635153        2.88382601
  6        -0.57488843        0.01710488       11.29292463
  6        -0.50901327        1.26945941       10.61980112
 16        -0.47166579       -1.55609905       10.51646398
 16        -0.27750128        1.44653729        8.87348101
  6         0.62576667       -1.18174469        9.17496375
  6         0.69944516        0.00957491        8.52459989
  6        -0.80372592        0.22475772       12.63821899
  7        -0.66370457        2.35152073       11.34303961
 16        -0.93971830        1.92820430       12.92908391
  6         1.43035554       -2.29122048        8.78408027
  7         2.04707043       -3.23046105        8.48628349
  6         1.58688301        0.19221787        7.42322005
  7         2.27318235        0.37690073        6.50353990
  6        -0.94919185       -0.74007197       13.66443133
  7        -1.08030555       -1.51840204       14.51772343

@blind-aug.gbs/N

