%Chk=BLIND01687_mA
%Mem=1GB
%NProcShared=48
#T M05/Gen test Massage SCF=(fermi,maxcyc=60)

M05 opt

0 1
  6        -0.29283342       -0.28824749       -0.93395443
  6        -0.46057366       -1.29777972        0.05525462
 16        -0.39622280        1.44173583       -0.64243262
 16        -0.77269923       -0.96823123        1.76655932
  6         0.23511278        1.52777684        1.01229830
  6         0.08299862        0.57096319        1.96572002
  6        -0.10780507       -0.87528500       -2.16945218
  7        -0.41190266       -2.54567276       -0.34255704
 16        -0.18548920       -2.59775438       -1.99087173
  6         0.90690645        2.75320673        1.29177011
  7         1.42427211        3.77713966        1.47908577
  6         0.59105932        0.76023223        3.28480815
  7         0.96246926        0.88378904        4.37920958
  6         0.08493687       -0.24449162       -3.42249595
  7         0.23501294        0.25640283       -4.46060859

@blind-aug.gbs/N

