%Chk=BLIND02136_mA
%Mem=1GB
%NProcShared=48
#T M05/Gen test Massage SCF=(fermi,maxcyc=60)

M05 opt

0 1
  6        -0.16514400       -0.55171524       -0.84228657
  6         0.68606199       -1.19088789        0.10255910
 16        -0.29464982        1.18535571       -1.07537329
 16         1.74126479       -0.32675902        1.23145975
  6        -0.00716831        1.75461419        0.57914212
  6         0.80183747        1.15345688        1.49115285
  6        -0.81991404       -1.50469674       -1.59621341
  7         0.70662052       -2.50139448        0.10569797
 16        -0.30325997       -3.07844642       -1.08512919
  6        -0.68619239        2.97144453        0.87803991
  7        -1.24003411        3.97586558        1.06669492
  6         1.00166935        1.72146208        2.78397118
  7         1.21646428        2.16342591        3.83727895
  6        -1.74560598       -1.30861324       -2.64969058
  7        -2.49991564       -1.16627301       -3.52253198

@blind-aug.gbs/N

