%Chk=BLIND01101_mB
%Mem=1GB
%NProcShared=48
#T M05/Gen test Massage SCF=(fermi,maxcyc=60)

M05 opt

0 1
  6         0.05725681       -0.81837882        8.14766722
  6         0.35200742       -1.09601128        6.78316403
 16         0.36516390        0.70976802        8.95913325
 16         1.05586205        0.07870147        5.66101121
  6         0.11900543        1.84232392        7.61717751
  6         0.39514525        1.58955087        6.31046536
  6        -0.44072441       -1.95340546        8.75514763
  7         0.11422941       -2.30993880        6.34991859
 16        -0.46948018       -3.24385986        7.59811387
  6        -0.37146581        3.11203672        8.03950086
  7        -0.74860529        4.13811481        8.43462438
  6         0.20429892        2.58977399        5.31192978
  7         0.09190537        3.38306437        4.46991778
  6        -0.84877379       -2.12351187       10.10040892
  7        -1.17929546       -2.28366479       11.20322458

@blind-aug.gbs/N

