%Chk=BLIND01403
%Mem=1GB
%NProcShared=48
#T M05/Gen test Massage SCF=(fermi,maxcyc=60)

M05 opt

0 1
  6        -0.74863295        0.69325262       -0.00764240
  6        -1.18777158       -0.62636401       -0.31029049
 16         0.60175318        1.09471844        1.04297604
 16        -0.41456652       -2.09526462        0.30539877
  6         1.67194975       -0.28472564        0.73324163
  6         1.26582432       -1.54887020        0.44230397
  6        -1.58801283        1.61061003       -0.60697539
  7        -2.25163642       -0.74930822       -1.06589379
 16        -2.83839228        0.75942548       -1.45365282
  6         3.05378270        0.03912464        0.86265702
  7         4.16631872        0.34544780        1.00273820
  6         2.21127145       -2.60033154        0.25656028
  7         2.94415700       -3.49298008        0.12623957
  6        -1.52434148        3.02433459       -0.55700294
  7        -1.49283852        4.18566213       -0.51929579
  6         0.76743079       -0.67201668        5.15518536
  6         0.62211892       -0.01312276        6.40840917
 16        -0.54399616       -1.02853102        4.04092618
 16        -0.91815032        0.58950247        7.04007509
  6        -1.60735980        0.35836114        4.34077611
  6        -1.75452650        0.99700370        5.53162525
  6         2.08288157       -1.05192010        4.98035441
  7         1.69638827        0.12091323        7.14721883
 16         2.99362255       -0.58528874        6.37950866
  6        -2.36387861        0.74125834        3.19528115
  7        -2.97576445        1.00081610        2.24164679
  6        -2.67529001        2.07619458        5.67819789
  7        -3.43370114        2.93988289        5.85077019
  6         2.66121152       -1.74010953        3.88623457
  7         3.15083953       -2.31250179        3.00095076

@blind-aug.gbs/N

