%Chk=BLIND01791
%Mem=1GB
%NProcShared=48
#T M05/Gen test Massage SCF=(fermi,maxcyc=60)

M05 opt

0 1
  6        -0.10374145        0.12474402       -1.00736565
  6        -0.26943622       -1.22197523       -0.57757599
 16        -0.50095665        1.54736095       -0.05505383
 16        -0.88023690       -1.68647504        1.01796492
  6        -0.14522286        0.95208771        1.57688530
  6        -0.29793926       -0.33070104        1.99970296
  6         0.34871835        0.14344360       -2.31129574
  7         0.01997922       -2.16884238       -1.43637826
 16         0.49703356       -1.48786071       -2.87846009
  6         0.29091632        1.97858176        2.46411821
  7         0.61930576        2.85329179        3.15566413
  6        -0.02728024       -0.69638985        3.35135282
  7         0.15315903       -1.03327367        4.44902175
  6         0.63379071        1.26533429       -3.12693260
  7         0.86373742        2.17462780       -3.81352253
  6        -0.10009666        0.12497850        9.59229472
  6        -0.26790969       -1.22174887       10.02123625
 16        -0.50008187        1.54759010       10.54345439
 16        -0.88459476       -1.68628120       11.61450257
  6        -0.15042548        0.95185501       12.17653803
  6        -0.30520747       -0.33094623       12.59856597
  6         0.35701484        0.14372512        8.28998874
  7         0.02415088       -2.16858118        9.16329148
 16         0.50663813       -1.48753735        7.72304766
  6         0.28299734        1.97799169       13.06551374
  7         0.60930217        2.85242823       13.75839102
  6        -0.03952631       -0.69700710       13.95110243
  7         0.13685330       -1.03417586       15.04934357
  6         0.64548149        1.26564421        7.47558528
  7         0.87827022        2.17496601        6.78999124

@blind-aug.gbs/N

