%Chk=BLIND02195
%Mem=1GB
%NProcShared=48
#T M05/Gen test Massage SCF=(fermi,maxcyc=60)

M05 opt

0 1
  6         0.00299853        0.31565184       -0.97029059
  6         0.08786998       -1.09801620       -0.82828296
 16         0.63501218        1.48794167        0.17636191
 16         0.82494101       -1.91352291        0.55961596
  6         0.40751134        0.60554652        1.69746159
  6         0.48478015       -0.74333273        1.84645270
  6        -0.58707147        0.62608993       -2.17890501
  7        -0.38242869       -1.83160555       -1.80732630
 16        -0.94985501       -0.84458612       -3.02171376
  6         0.17056301        1.46246952        2.81129646
  7         0.00432259        2.20250270        3.69215289
  6         0.33204581       -1.35140697        3.12741323
  7         0.24320471       -1.88700334        4.15511451
  6        -0.85384739        1.90545483       -2.72408801
  7        -1.07179740        2.94739587       -3.19094193
  6         0.26743968       -0.12072876       10.88629587
  6        -0.88167796       -0.87187705       10.51062108
 16         1.59708549        0.29837580        9.81629119
 16        -1.17543500       -1.48543589        8.87604447
  6         0.73119466        0.46962597        8.27842627
  6        -0.36723122       -0.24020112        7.90795341
  6         0.21315088        0.16710934       12.23518622
  7        -1.75397525       -1.14902195       11.44878320
 16        -1.22441305       -0.53494686       12.90253440
  6         1.32969357        1.42112944        7.40233845
  7         1.86700202        2.18840255        6.71401831
  6        -0.96155406       -0.05833657        6.62434616
  7        -1.46070360        0.03586896        5.57892701
  6         1.15113782        0.88046960       13.02033976
  7         1.91466752        1.45540829       13.68182583

@blind-aug.gbs/N

