%Chk=BLIND01088_mA
%Mem=1GB
%NProcShared=48
#T M05/Gen test Massage SCF=(fermi,maxcyc=60)

M05 opt

0 1
  6        -0.59625948        0.01065580       -0.82793115
  6        -0.04522126       -1.26881822       -0.53616111
 16         0.17120497        1.54971438       -0.46624948
 16         1.50735674       -1.51863797        0.27727603
  6         1.03934741        1.13454909        1.02307539
  6         1.56920955       -0.08283196        1.31440601
  6        -1.79118489       -0.14139631       -1.50197614
  7        -0.72220575       -2.32043667       -0.92814410
 16        -2.09760876       -1.83240042       -1.72877139
  6         1.18406347        2.23860742        1.91257082
  7         1.29743811        3.17367801        2.59373322
  6         2.29241228       -0.29933572        2.52438365
  7         2.91345317       -0.51313937        3.48330092
  6        -2.66008652        0.86508637       -1.98897819
  7        -3.38023175        1.67791335       -2.40346470

@blind-aug.gbs/N

