%Chk=BLIND00022
%Mem=1GB
%NProcShared=48
#T M05/Gen test Massage SCF=(fermi,maxcyc=60)

M05 opt

0 1
  6        -0.78641397       -0.54511798        0.35427160
  6        -0.93409157        0.85848868        0.53840830
 16         0.08804324       -1.30631121       -0.96649563
 16        -0.22460244        2.07955839       -0.52939424
  6         1.36513064       -0.10712785       -1.24059256
  6         1.23763262        1.23506138       -1.06762906
  6        -1.49397182       -1.21816391        1.32980955
  7        -1.67069828        1.26025141        1.54531311
 16        -2.28439276       -0.06119626        2.35034233
  6         2.57786236       -0.68121033       -1.72100982
  7         3.53687660       -1.19247523       -2.13343304
  6         2.31632442        2.12007249       -1.36279219
  7         3.15780743        2.88013072       -1.61802533
  6        -1.62807776       -2.61600785        1.51206306
  7        -1.75665606       -3.76023127        1.67117407
  6         0.73162102       -0.49902882        5.22183051
  6         1.21089948        0.23424587        6.34362685
 16        -0.86424275       -1.22369428        5.09300732
 16         0.25307080        0.56584086        7.79524572
  6        -1.82184345       -0.06250787        6.03043418
  6        -1.37626688        0.64461819        7.10238488
  6         1.73459898       -0.61564301        4.28069313
  7         2.45079113        0.65712867        6.30240962
 16         3.16274753        0.16154023        4.88169604
  6        -3.16974379        0.04389779        5.57995425
  7        -4.26479009        0.07850502        5.19153571
  6        -2.24501583        1.52059493        7.81784413
  7        -2.92441257        2.22258498        8.44757119
  6         1.69188165       -1.27304878        3.02723339
  7         1.67761882       -1.81567047        1.99939381

@blind-aug.gbs/N

