%Chk=BLIND00969
%Mem=1GB
%NProcShared=48
#T M05/Gen test Massage SCF=(fermi,maxcyc=60)

M05 opt

0 1
  6         0.58506117        0.64052742        0.53715636
  6        -0.74074005        1.11464011        0.32908201
 16         1.04606984       -1.04997575        0.67201428
 16        -2.15224688        0.06305227        0.13829464
  6        -0.13855948       -1.79470398       -0.41709329
  6        -1.40659755       -1.35169445       -0.62557843
  6         1.44258354        1.71155824        0.68832382
  7        -0.92116999        2.41272713        0.31249414
 16         0.52970895        3.18158713        0.58584647
  6         0.34916684       -2.97353338       -1.05236799
  7         0.78290478       -3.94166355       -1.52753996
  6        -2.29784496       -2.05376608       -1.48970540
  7        -3.06663540       -2.60945173       -2.16134582
  6         2.83869053        1.69346159        0.92438787
  7         3.98315777        1.69737593        1.12755115
  6        -0.19757022       -0.48887207        8.33010894
  6         0.56451140        0.70114169        8.50018399
 16        -1.38532349       -0.75785849        7.06306312
 16         0.46033376        2.10776141        7.43006422
  6        -0.66781658        0.18474466        5.74366735
  6         0.06248374        1.32149109        5.89237192
  6         0.08571773       -1.37154676        9.35281933
  7         1.36566386        0.76117175        9.53575684
 16         1.23362981       -0.63936847       10.42568436
  6        -0.96723740       -0.34105104        4.45332797
  7        -1.25773135       -0.79359447        3.42278892
  6         0.55604782        2.03179865        4.75844087
  7         0.95275343        2.65823032        3.86337990
  6        -0.45441178       -2.66140534        9.57573949
  7        -0.89398641       -3.71801786        9.77930776

@blind-aug.gbs/N

