%Chk=BLIND01514
%Mem=1GB
%NProcShared=48
#T M05/Gen test Massage SCF=(fermi,maxcyc=60)

M05 opt

0 1
  6        -0.68400808        0.69908476       -0.29072729
  6        -0.97858797       -0.61534862       -0.75041658
 16         0.15723320        1.08410352        1.20345821
 16        -0.51084638       -2.09366780        0.10420529
  6         1.25706818       -0.30185041        1.32014918
  6         0.98868428       -1.56113705        0.88447580
  6        -1.22185396        1.62630843       -1.16037164
  7        -1.66824365       -0.72575124       -1.85949111
 16        -2.05194787        0.78966326       -2.43151109
  6         2.48304085        0.01051019        1.97628296
  7         3.45644566        0.30737821        2.53801730
  6         1.92717437       -2.61885305        1.06998896
  7         2.64899813       -3.51642356        1.22575731
  6        -1.17539770        3.03919069       -1.07806735
  7        -1.15512640        4.20000690       -1.02158091
  6         0.68457765        0.69847102        9.49086180
  6         0.97820045       -0.61632777        9.95011821
 16        -0.15653748        1.08458958        7.99688910
 16         0.50922687       -2.09402763        9.09510053
  6        -1.25744952       -0.30048400        7.87990228
  6        -0.98998309       -1.56010866        8.31516252
  6         1.22323407        1.62501717       10.36072656
  7         1.66789714       -0.72759687       11.05908065
 16         2.05282975        0.78734869       11.63151730
  6        -2.48325652        0.01301713        7.22400297
  7        -3.45649691        0.31080310        6.66246964
  6        -1.92930609       -2.61704739        8.12943487
  7        -2.65183647       -3.51401607        7.97347600
  6         1.17785329        3.03795962       10.27885679
  7         1.15846685        4.19880816       10.22272531

@blind-aug.gbs/N

