%Chk=BLIND01901_mB
%Mem=1GB
%NProcShared=48
#T M05/Gen test Massage SCF=(fermi,maxcyc=60)

M05 opt

0 1
  6        -0.28881650       -0.92308635        9.92497005
  6         0.73690212       -0.33314118       10.71597742
 16        -1.53355977       -0.03692330        9.05672706
 16         0.94572951        1.41198098       10.92935061
  6        -0.64189490        1.43472169        8.62857191
  6         0.33987756        2.00756938        9.37396604
  6        -0.20061153       -2.29847710       10.00128119
  7         1.55165045       -1.14235083       11.34781990
 16         1.11093647       -2.72030583       11.05329304
  6        -1.08511259        2.02228851        7.40815683
  7        -1.49670116        2.47679517        6.42062881
  6         0.96301532        3.22194981        8.96053958
  7         1.47736753        4.22509523        8.67757811
  6        -1.02590481       -3.26807476        9.38165242
  7        -1.69870695       -4.07751123        8.88845288

@blind-aug.gbs/N

