%Chk=BLIND02537
%Mem=1GB
%NProcShared=48
#T M05/Gen test Massage SCF=(fermi,maxcyc=60)

M05 opt

0 1
  6         0.19873208       -0.01882540       -1.00062984
  6        -0.20551768       -1.27775322       -0.47383812
 16        -0.31997839        1.54646404       -0.39290863
 16        -1.28458675       -1.47152614        0.91635983
  6        -0.49902192        1.17883157        1.33246433
  6        -0.88301865       -0.01863227        1.84847879
  6         1.00278090       -0.21458273       -2.10538672
  7         0.22754458       -2.35379784       -1.08412091
 16         1.15529775       -1.91679013       -2.39530939
  6        -0.24040151        2.30016652        2.17318608
  7        -0.04297995        3.24849285        2.81575509
  6        -1.04246862       -0.19608127        3.25454759
  7        -1.21319639       -0.37757651        4.38981745
  6         1.60990058        0.75959896       -2.93456957
  7         2.10816785        1.54549724       -3.63112504
  6        -0.64166964       -0.09026451       11.07141987
  6        -0.07815036        1.20996306       11.20438951
 16         0.14844797       -1.58864786       11.53947773
 16         1.51696237        1.53374456       11.90107400
  6         1.09767120       -1.03155378       12.92970919
  6         1.64016842        0.20690754       13.06954611
  6        -1.87282536       -0.00154101       10.45361168
  7        -0.77848664        2.22000581       10.74919420
 16        -2.19542798        1.65986396       10.07879487
  6         1.29456468       -2.04306776       13.91416950
  7         1.44810170       -2.90684108       14.67674084
  6         2.42949847        0.53925008       14.20991817
  7         3.10277169        0.84449833       15.10683111
  6        -2.76528214       -1.04832501       10.11755724
  7        -3.50560807       -1.89572749        9.82614262

@blind-aug.gbs/N

