%Chk=mon
%Mem=2GB
%NProcShared=16
#T M05/Gen test Massage SCF=(fermi,maxcyc=60)

M05 opt

0 1
  6         0.00000000        0.00000000        2.84328672
  1         0.25192920       -0.28537366        3.88303645
  1         0.86380580        0.51768043        2.38303411
  1        -0.23960121       -0.90932221        2.25872677
  1        -0.87613379        0.67701544        2.84834955
  0        -0.16670525        0.18883594        2.15526907
  0        -0.57159297       -0.34255674        3.14784262
  0         0.15854763        0.60171184        3.23009861
  0         0.57975058       -0.44799105        2.83993657

@aug-cc-pVTZ.gbs/N

