%Chk=BLIND00604
%Mem=2GB
%NProcShared=16
#T M05/Gen test Massage Symmetry=None SCF=(tight,maxcyc=60)

M05 opt

0 1
  6         0.87339519       -0.24727359       -0.46598877
  6        -0.08182324       -1.30221075       -0.44380795
 16         0.48772364        1.46676477       -0.50896085
 16        -1.83463961       -1.05359865       -0.42343245
  6        -1.01861402        1.48147157        0.42637474
  6        -1.93820411        0.48094661        0.45716309
  6         2.14734971       -0.77579148       -0.52086980
  7         0.37532747       -2.53020191       -0.47399001
 16         2.03719943       -2.50514236       -0.56602521
  6        -1.22143471        2.69759661        1.14121269
  7        -1.35397478        3.71555543        1.68654379
  6        -3.14367587        0.61325534        1.20767903
  7        -4.15180956        0.68923158        1.78110749
  6         3.38358437       -0.08692820       -0.56944646
  7         4.40694623        0.46203015       -0.61915713
  6         0.03071729        0.64938188        6.98242753
  6         0.02633787        1.28991344        5.71139378
 16        -0.73514750       -0.89087592        7.34239096
 16        -0.73373739        0.61417030        4.26217152
  6        -0.53714480       -1.72012912        5.78763820
  6        -0.53836531       -1.12061480        4.56770986
  6         0.66588364        1.45499113        7.90593209
  7         0.59451845        2.46808316        5.62804534
 16         1.16531634        2.91979125        7.12506453
  6        -0.41561278       -3.13399566        5.91917158
  7        -0.34445587       -4.28366853        6.07531897
  6        -0.41874328       -1.88780651        3.37144511
  7        -0.35337905       -2.47518365        2.37062457
  6         0.88207058        1.21115305        9.28396497
  7         1.06007382        1.03175685       10.41852558

@aug-cc-pVTZ.gbs/N

