%Chk=BLIND01584
%Mem=2GB
%NProcShared=16
#T M05/Gen test Massage Symmetry=None SCF=(tight,maxcyc=60)

M05 opt

0 1
  6        -0.46085086       -0.87891967        0.23711939
  6         0.75660300       -0.66290828        0.94208167
 16        -1.54943266        0.38581756       -0.31419362
 16         1.39435317        0.93644937        1.35429296
  6        -0.38847166        1.67884598       -0.66685372
  6         0.77745147        1.89539071       -0.00249261
  6        -0.69230036       -2.23422114        0.11508544
  7         1.42203144       -1.72169142        1.33456517
 16         0.59093446       -3.09661542        0.89892922
  6        -0.81305563        2.54002194       -1.72003654
  7        -1.21267705        3.22819302       -2.56733597
  6         1.62003757        2.99663634       -0.33603216
  7         2.32218658        3.89683564       -0.55410126
  6        -1.78697120       -2.88709995       -0.50185333
  7        -2.68253978       -3.43957712       -0.99563650
  6        -0.46067309       -0.87902978        8.73705664
  6         0.75661621       -0.66271203        9.44220913
 16        -1.54947736        0.38543438        8.18555662
 16         1.39390935        0.93680657        9.85450279
  6        -0.38877730        1.67874305        7.83306529
  6         0.77698757        1.89558105        8.49760844
  6        -0.69177129       -2.23438931        8.61500180
  7         1.42224183       -1.72132759        9.83481027
 16         0.59155063       -3.09646017        9.39905873
  6        -0.81340547        2.53980280        6.77980526
  7        -1.21306130        3.22786615        5.93243458
  6         1.61935669        2.99702918        8.16418948
  7         2.32131969        3.89739791        7.94622107
  6        -1.78618450       -2.88754339        7.99789734
  7        -2.68153955       -3.44024562        7.50397882

@aug-cc-pVTZ.gbs/N

