%Chk=BLIND02515
%Mem=2GB
%NProcShared=16
#T M05/Gen test Massage Symmetry=None SCF=(tight,maxcyc=60)

M05 opt

0 1
  6        -0.49248439       -0.87347501       -0.18870463
  6        -0.16988386       -0.68371402        1.18452015
 16        -0.83200328        0.41375472       -1.33599849
 16        -0.02555605        0.90124023        1.96019912
  6         0.22646572        1.69097890       -0.70952913
  6         0.54328844        1.88248152        0.59836772
  6        -0.56835812       -2.22366798       -0.46533678
  7        -0.00398888       -1.75670649        1.91870408
 16        -0.26284573       -3.11391654        0.99032329
  6         0.70575513        2.56856471       -1.72501642
  7         1.05153379        3.27087937       -2.58430931
  6         1.36868803        2.97294161        1.00278611
  7         2.01285277        3.86360590        1.38053607
  6        -0.87277530       -2.85301969       -1.69676483
  7        -1.12987197       -3.38634632       -2.69704475
  6         0.36421688        0.95010889       11.37563048
  6         1.12686219        0.11207161       12.23696218
 16        -0.53687462        0.40375797        9.96919832
 16         1.26626733       -1.64257407       12.04624484
  6        -1.02890783       -1.21178506       10.50961124
  6        -0.31099322       -2.02139181       11.33227737
  6         0.49788841        2.26594592       11.77060904
  7         1.78976018        0.69013373       13.20869797
 16         1.56292341        2.33762734       13.13640141
  6        -2.27162195       -1.63331166        9.95367365
  7        -3.27616486       -1.94209805        9.45694683
  6        -0.77675682       -3.32665728       11.66886059
  7        -1.10300229       -4.40722000       11.94612259
  6        -0.07817954        3.42131619       11.18885849
  7        -0.53508112        4.38119977       10.71879426

@aug-cc-pVTZ.gbs/N

