%Chk=BLIND01960
%Mem=2GB
%NProcShared=16
#T M05/Gen test Massage Symmetry=None SCF=(tight,maxcyc=60)

M05 opt

0 1
  6        -0.35152092        0.11048142       -0.95149136
  6         0.00135722       -1.22890672       -0.62385881
 16         0.40838245        1.54896439       -0.28678823
 16         1.25707114       -1.66676264        0.54492393
  6         0.81370826        0.97587065        1.34152275
  6         1.15115423       -0.29976439        1.66791132
  6        -1.33178136        0.10769277       -1.92328605
  7        -0.62589332       -2.18976580       -1.25723596
 16        -1.69639372       -1.53250794       -2.34946208
  6         0.80110297        2.01300002        2.31891388
  7         0.80082395        2.89605058        3.07483363
  6         1.50697736       -0.64697412        3.00461519
  7         1.83172672       -0.96864211        4.07325624
  6        -1.95913917        1.21599693       -2.54235996
  7        -2.47784926        2.11390978       -3.06751544
  6         0.35152092       -0.11048142        8.89189136
  6        -0.00135722        1.22890672        8.56425881
 16        -0.40838245       -1.54896439        8.22718823
 16        -1.25707114        1.66676264        7.39547607
  6        -0.81370826       -0.97587065        6.59887725
  6        -1.15115423        0.29976439        6.27248868
  6         1.33178136       -0.10769277        9.86368605
  7         0.62589332        2.18976580        9.19763596
 16         1.69639372        1.53250794       10.28986208
  6        -0.80110297       -2.01300002        5.62148612
  7        -0.80082395       -2.89605058        4.86556637
  6        -1.50697736        0.64697412        4.93578481
  7        -1.83172672        0.96864211        3.86714376
  6         1.95913917       -1.21599693       10.48275996
  7         2.47784926       -2.11390978       11.00791544

@aug-cc-pVTZ.gbs/N

