%Chk=BLIND00744
%Mem=2GB
%NProcShared=16
#T M05/Gen test Massage Symmetry=None SCF=(tight,maxcyc=60)

M05 opt

0 1
  6        -0.44349867        0.82032128        0.41411452
  6        -1.27981185       -0.33111706        0.38968769
 16         1.30851315        0.79618830        0.54971985
 16        -0.67966129       -1.99525627        0.46073919
  6         1.67767857       -0.70780505       -0.31390216
  6         0.88778094       -1.81354656       -0.34617452
  6        -1.22187452        1.95993186        0.38724452
  7        -2.57492210       -0.13475201        0.34507542
 16        -2.89275742        1.49914562        0.36169216
  6         2.94528434       -0.68251068       -0.96476733
  7         3.99600439       -0.62301290       -1.45836678
  6         1.30117507       -2.99249249       -1.03402168
  7         1.61016177       -3.98360063       -1.55666688
  6        -0.80194884        3.31209817        0.40908766
  7        -0.47564121        4.42740535        0.43571755
  6        -0.13023795       -0.99382369        3.91534475
  6         1.23039137       -0.62092146        4.10364881
 16        -1.50829359       -0.21458662        4.67841021
 16         1.75815595        0.72550119        5.12501992
  6        -0.91853574        1.45449672        4.78072620
  6         0.37731446        1.82403910        4.95920514
  6        -0.19825912       -2.10490337        3.09914730
  7         2.14286227       -1.34696131        3.50521501
 16         1.41073529       -2.58839566        2.67229981
  6        -1.96178279        2.42227047        4.70237305
  7        -2.84853056        3.17251953        4.65767667
  6         0.74047980        3.19823854        5.07594749
  7         1.07801577        4.30288629        5.20536514
  6        -1.34822626       -2.80889961        2.66655824
  7        -2.28053183       -3.40418253        2.30943012

@aug-cc-pVTZ.gbs/N

