%Chk=BLIND01031
%Mem=2GB
%NProcShared=16
#T M05/Gen test Massage Symmetry=None SCF=(tight,maxcyc=60)

M05 opt

0 1
  6         0.32758440        0.89238385        0.37074040
  6         0.81043386        0.60418709       -0.93678616
 16        -0.05166030       -0.30788069        1.59713966
 16         1.07980384       -1.03210099       -1.55693894
  6        -0.61982529       -1.64226630        0.57698003
  6        -0.16818432       -1.92765478       -0.67290712
  6         0.27045975        2.25935882        0.55355016
  7         1.10188146        1.62177076       -1.70972974
 16         0.83854636        3.04318377       -0.88440764
  6        -1.59985607       -2.45651617        1.21543635
  7        -2.37831212       -3.10433959        1.78598347
  6        -0.65981059       -3.05672889       -1.39223821
  7        -1.01020177       -3.98166265       -2.00268861
  6        -0.13903961        2.97610394        1.70409575
  7        -0.46295642        3.58052881        2.64262885
  6         0.47275023        0.67097021        9.62137775
  6         1.35762051       -0.07021370        8.78862469
 16        -1.18030952        1.10324966        9.21022746
 16         0.91941002       -0.71158502        7.19764929
  6        -1.64555656       -0.29907885        8.22984895
  6        -0.81080044       -1.01587436        7.43170707
  6         1.13263854        1.05983206       10.76969701
  7         2.58061858       -0.25501213        9.22219739
 16         2.77115504        0.49917129       10.69386995
  6        -3.03541617       -0.60325764        8.31264508
  7        -4.17861851       -0.79744074        8.39372745
  6        -1.29784481       -2.10112836        6.64497111
  7        -1.65596639       -2.97334163        5.96532482
  6         0.63384595        1.81895713       11.85602271
  7         0.24396226        2.44867910       12.75186693

@aug-cc-pVTZ.gbs/N

