%Chk=BLIND00045
%Mem=2GB
%NProcShared=16
#T M05/Gen test Massage Symmetry=None SCF=(tight,maxcyc=60)

M05 opt

0 1
  6        -0.29673606        0.91190705        0.34854290
  6        -1.37430764        0.07956734       -0.06603733
 16         1.22539658        0.34012579        1.01539749
 16        -1.34184720       -1.68958047       -0.00561662
  6         1.40504450       -1.19172599        0.14059533
  6         0.38502487       -1.99503842       -0.26176416
  6        -0.65617904        2.23781941        0.21415396
  7        -2.46598969        0.67104279       -0.48585528
 16        -2.28253070        2.32210246       -0.37973424
  6         2.76569765       -1.55433956       -0.07900446
  7         3.88959821       -1.81895031       -0.21324937
  6         0.64083506       -3.23438600       -0.91942718
  7         0.80292897       -4.26501650       -1.43172833
  6         0.10648639        3.39086247        0.52075073
  7         0.71469596        4.34806893        0.77556997
  6         0.25363091        0.97653856        5.85272058
  6         0.96034520        0.36222260        4.78080759
 16        -1.37803913        0.56314731        6.35797022
 16         0.31312004       -0.95592827        3.79178472
  6        -1.39904302       -1.17150963        5.99102854
  6        -0.72835108       -1.77070211        4.97182064
  6         1.01665371        1.99425035        6.38878228
  7         2.15034971        0.83178084        4.49573856
 16         2.50443240        2.10627200        5.50629020
  6        -2.24772801       -1.91693753        6.86002836
  7        -2.96961758       -2.47783986        7.57798174
  6        -0.85121518       -3.17153274        4.73408147
  7        -0.94443766       -4.30313651        4.48566930
  6         0.69379262        2.86609122        7.45687527
  7         0.44167900        3.59622155        8.32546283

@aug-cc-pVTZ.gbs/N

