%Chk=BLIND01636
%Mem=2GB
%NProcShared=16
#T M05/Gen test Massage Symmetry=None SCF=(tight,maxcyc=60)

M05 opt

0 1
  6        -0.31567909       -0.90706255       -0.34451873
  6        -0.91909867       -0.52057474        0.88525305
 16         0.22219726        0.19906032       -1.59978678
 16        -1.19940751        1.15951116        1.36829205
  6         0.72505819        1.58466416       -0.61421337
  6         0.15841039        1.96374770        0.56173305
  6        -0.28235366       -2.28417854       -0.43251979
  7        -1.31824471       -1.47690776        1.68773022
 16        -1.01661210       -2.95623674        0.98664506
  6         1.78910849        2.33065222       -1.19935305
  7         2.64074199        2.92001109       -1.72714990
  6         0.60925587        3.12627804        1.25397831
  7         0.92439251        4.08129092        1.83670075
  6         0.21911261       -3.08587470       -1.48655170
  7         0.61749980       -3.75930382       -2.34613113
  6        -0.31443806       -0.90742589        5.85530321
  6        -0.92185635       -0.51990123        7.08277798
 16         0.22729808        0.19762620        4.60075210
 16        -1.20396195        1.16058473        7.56337315
  6         0.72678990        1.58420953        5.58666115
  6         0.15631694        1.96428610        6.76043560
  6        -0.28062658       -2.28461698        5.76867352
  7        -1.32343271       -1.47555796        7.88484822
 16        -1.01933379       -2.95548390        7.18609223
  6         1.79260111        2.32982119        5.00425290
  7         2.64583589        2.91882426        4.47864961
  6         0.60476750        3.12751908        7.45305603
  7         0.91789195        4.08311371        8.03590945
  6         0.22433673       -3.08720399        4.71699173
  7         0.62557877       -3.76136119        3.85931300

@aug-cc-pVTZ.gbs/N

