%Chk=BLIND01579
%Mem=2GB
%NProcShared=16
#T M05/Gen test Massage Symmetry=None SCF=(tight,maxcyc=60)

M05 opt

0 1
  6        -0.04518358        0.42692491       -0.92563625
  6        -0.04754396       -0.99615854       -0.95122086
 16        -0.71223711        1.41726656        0.36385188
 16        -0.70260653       -2.01091115        0.34329006
  6        -0.39743219        0.37678170        1.76471276
  6        -0.39563625       -0.98245260        1.75362532
  6         0.49583591        0.91131320       -2.09950555
  7         0.43790991       -1.58075457       -2.01913567
 16         0.91849175       -0.42628673       -3.11784491
  6        -0.18041726        1.10902605        2.96796352
  7        -0.03337452        1.74868607        3.92734171
  6        -0.17682911       -1.72709379        2.95010970
  7        -0.03225561       -2.37380791        3.90498429
  6         0.67701665        2.25931010       -2.49351866
  7         0.82467555        3.35987468       -2.83710325
  6         0.04439376        0.42662245       10.52581391
  6         0.04785962       -0.99646795       10.55088088
 16         0.71130194        1.41795825        9.23701468
 16         0.70435460       -2.01023324        9.25632203
  6         0.39800227        0.37773774        7.83562013
  6         0.39726877       -0.98150151        7.84621118
  6        -0.49758228        0.91015720       11.69959384
  7        -0.43765898       -1.58183480       11.61834393
 16        -0.91968695       -0.42814583       12.71723778
  6         0.18100282        1.11025047        6.63252994
  7         0.03392854        1.75014487        5.67331290
  6         0.17963408       -1.72587764        6.64934809
  7         0.03603747       -2.37235661        5.69416691
  6        -0.68001541        2.25786750       12.09400930
  7        -0.82870755        3.35819030       12.43792251

@aug-cc-pVTZ.gbs/N

