%Chk=BLIND00403
%Mem=2GB
%NProcShared=16
#T M05/Gen test Massage Symmetry=None SCF=(tight,maxcyc=60)

M05 opt

0 1
  6        -0.55532905        0.85143355        0.08820131
  6        -1.25781491       -0.22996227       -0.51422989
 16         0.71831675        0.68795561        1.28804212
 16        -0.93553459       -1.93669578       -0.17103249
  6         1.45729949       -0.83750225        0.76746082
  6         0.79849148       -1.87699850        0.19034418
  6        -1.07492161        2.04927070       -0.35958541
  7        -2.22358988        0.06864757       -1.34847859
 16        -2.38350581        1.72253534       -1.44847381
  6         2.85131851       -0.91050261        1.05463947
  7         3.98031252       -0.93276597        1.33044716
  6         1.48086421       -3.08256605       -0.14864886
  7         1.98969994       -4.09319509       -0.41443310
  6        -0.68212773        3.36379101       -0.00898909
  7        -0.37911741        4.44960684        0.27435634
  6        -0.28593302        0.66929229        7.47283906
  6        -0.09937195       -0.65207914        6.97786515
 16        -0.81211221        1.07599281        9.09956792
 16        -0.33966531       -2.11660622        7.94327070
  6        -0.08647014       -0.25758634       10.01560956
  6         0.09830380       -1.52292050        9.55470596
  6        -0.06007824        1.58023831        6.46067791
  7         0.23928333       -0.78187505        5.71837095
 16         0.33009594        0.72033430        5.00700815
  6         0.26341844        0.10470372       11.34880630
  7         0.50956195        0.44067340       12.43403934
  6         0.64985447       -2.53711287       10.39205154
  7         1.06801117       -3.40126274       11.04727372
  6        -0.14621669        2.99265997        6.51372184
  7        -0.22115118        4.15238189        6.53665240

@aug-cc-pVTZ.gbs/N

