%Chk=BLIND01141
%Mem=2GB
%NProcShared=16
#T M05/Gen test Massage Symmetry=None SCF=(tight,maxcyc=60)

M05 opt

0 1
  6         0.43368683       -0.91894556       -0.09254026
  6         0.44442104       -0.41257848        1.23761154
 16         0.49329408        0.06189567       -1.54956261
 16         0.48788085        1.31023790        1.64332485
  6        -0.38689455        1.50157411       -1.00484613
  6        -0.38596557        1.99485588        0.26176995
  6         0.44159646       -2.29895232       -0.06386977
  7         0.45610093       -1.28572316        2.21502751
 16         0.48797703       -2.82681794        1.58659480
  6        -1.09200325        2.15711817       -2.05564266
  7        -1.63057257        2.66936527       -2.94936467
  6        -1.09215756        3.19088368        0.58542460
  7        -1.62860833        4.17665179        0.88776203
  6         0.44649346       -3.20094330       -1.15545428
  7         0.46000603       -3.95568260       -2.03935580
  6         0.76073972       -0.54007514        7.10025517
  6        -0.53175676       -1.06782886        7.37730304
 16         1.20338099        0.34271664        5.64654817
 16        -1.92756378       -0.88996714        6.30274438
  6        -0.32628635        1.16626207        5.29156534
  6        -1.56636618        0.67420038        5.55179860
  6         1.63123010       -0.88851709        8.11323983
  7        -0.67796800       -1.75478971        8.48390463
 16         0.78043466       -1.84606036        9.28118014
  6        -0.14789902        2.42216297        4.64196503
  7         0.04726668        3.42794787        4.09287478
  6        -2.73747723        1.39915004        5.18181369
  7        -3.71799829        1.94106973        4.87225331
  6         3.00865686       -0.58260293        8.23274084
  7         4.14194233       -0.34874103        8.34259790

@aug-cc-pVTZ.gbs/N

