%Chk=BLIND00440
%Mem=2GB
%NProcShared=16
#T M05/Gen test Massage Symmetry=None SCF=(tight,maxcyc=60)

M05 opt

0 1
  6        -0.96080524       -0.00914807       -0.34333441
  6        -0.50832975       -1.27496318        0.12443124
 16        -0.42405878        1.54770495        0.27036629
 16         0.70720884       -1.48715949        1.39408750
  6         1.25365469        1.16442492        0.69756179
  6         1.69889513       -0.03971278        1.14416832
  6        -1.93720063       -0.19057784       -1.30199936
  7        -1.05652699       -2.34310894       -0.40131056
 16        -2.21428268       -1.88929814       -1.50791546
  6         2.13151606        2.28021349        0.57320362
  7         2.80311398        3.22429415        0.47907098
  6         3.06504777       -0.23000440        1.50660176
  7         4.16165066       -0.42212772        1.84048327
  6        -2.66117381        0.79431854       -2.01684927
  7        -3.27131055        1.58914650       -2.60598218
  6        -0.35033529        0.76335514        8.36246399
  6         0.83832845        1.08565004        7.64899980
 16        -1.58703607       -0.35866295        7.81459244
 16         1.28344531        0.37490697        6.08973599
  6        -0.59218235       -1.52363827        6.92172030
  6         0.54492138       -1.22937736        6.23757875
  6        -0.41888842        1.51907833        9.51549744
  7         1.62895787        1.99059968        8.17228872
 16         0.96483007        2.56064404        9.58823384
  6        -1.12554916       -2.84509739        6.94056979
  7        -1.61171104       -3.90068537        6.96452105
  6         1.24681749       -2.23581443        5.51068934
  7         1.83431858       -3.01676107        4.88149068
  6        -1.43262789        1.52440993       10.50416944
  7        -2.25969794        1.54863463       11.32054203

@aug-cc-pVTZ.gbs/N

