%Chk=BLIND00092
%Mem=2GB
%NProcShared=16
#T M05/Gen test Massage Symmetry=None SCF=(tight,maxcyc=60)

M05 opt

0 1
  6        -0.39505693       -0.76373284       -0.54931874
  6        -0.50944585       -0.95163596        0.85689399
 16        -0.39348620        0.79250077       -1.36580582
 16        -0.63809388        0.37033371        2.02754945
  6         0.39969048        1.79855596       -0.13989971
  6         0.29965291        1.62938371        1.20509742
  6        -0.35757295       -1.99097705       -1.18000870
  7        -0.55466202       -2.18478481        1.29866251
 16        -0.49290779       -3.24085880        0.01343450
  6         1.14867717        2.87471625       -0.69845823
  7         1.72628106        3.75021766       -1.19952115
  6         0.94199272        2.52654536        2.10866948
  7         1.42362950        3.24908608        2.88125414
  6        -0.26071964       -2.26455000       -2.56599056
  7        -0.19098122       -2.50748797       -3.70054492
  6        -0.83980317       -0.55483250        5.30792459
  6        -1.03162785        0.84335337        5.49260326
 16         0.29704911       -1.28048472        4.18119818
 16        -0.12157562        2.09252867        4.62891677
  6         1.59567170       -0.07352088        4.21185317
  6         1.42630648        1.26357725        4.38828464
  6        -1.73204745       -1.25375458        6.09577692
  7        -1.96559676        1.21802662        6.33235446
 16        -2.72622821       -0.12453522        6.95676171
  6         2.88578197       -0.63386279        3.98224026
  7         3.91316730       -1.13339073        3.76742817
  6         2.53734346        2.15687067        4.34871639
  7         3.40886217        2.92402004        4.29520839
  6        -1.89263484       -2.65599772        6.21020729
  7        -2.04455329       -3.80409699        6.30962951

@aug-cc-pVTZ.gbs/N

