%Chk=BLIND01593
%Mem=2GB
%NProcShared=16
#T M05/Gen test Massage Symmetry=None SCF=(tight,maxcyc=60)

M05 opt

0 1
  6        -0.32993598        0.72604985        0.63647684
  6        -0.58026264        1.01089343       -0.73539318
 16        -0.26613121       -0.88269618        1.34102051
 16        -0.83929560       -0.22668191       -1.97470652
  6         0.39036525       -1.80588168       -0.02311402
  6         0.16013719       -1.54401036       -1.33691100
  6        -0.21599377        1.90675601        1.34234748
  7        -0.65433258        2.27174182       -1.08558600
 16        -0.45368728        3.23649917        0.25601812
  6         1.17809090       -2.92165020        0.38387318
  7         1.79196942       -3.83242919        0.76443567
  6         0.69961932       -2.38000690       -2.35867944
  7         1.09416761       -3.05002023       -3.22258911
  6         0.02031465        2.08376765        2.72726396
  7         0.20448051        2.24766330        3.86318520
  6         0.43517741       -0.83718160        8.01906751
  6        -0.29936183       -0.07884656        7.06449603
 16         1.26229165       -0.17247826        9.41998441
 16        -0.52771875        1.67458632        7.15345995
  6         0.19313456        1.18725179        9.81006052
  6        -0.51434583        1.91860420        8.90881739
  6         0.45933859       -2.16381065        7.63857464
  7        -0.80588115       -0.72441052        6.04246600
 16        -0.39656447       -2.33490253        6.14091510
  6         0.16625931        1.49666659       11.20097025
  7         0.19554417        1.72584269       12.34018653
  6        -1.31080568        3.02633189        9.32418831
  7        -1.94874101        3.95377767        9.61368611
  6         1.08532449       -3.25404408        8.29026564
  7         1.60077119       -4.15886317        8.80670831

@aug-cc-pVTZ.gbs/N

