%Chk=BLIND00814
%Mem=2GB
%NProcShared=16
#T M05/Gen test Massage Symmetry=None SCF=(tight,maxcyc=60)

M05 opt

0 1
  6        -0.47862248       -0.89733263       -0.08260495
  6        -1.13561619        0.02419304        0.78051517
 16         0.48950300       -0.45945540       -1.48243109
 16        -1.05599346        1.78356150        0.59921101
  6         1.17518427        1.07997938       -0.93097498
  6         0.55923469        1.96795719       -0.10650814
  6        -0.77585497       -2.18853022        0.30438970
  7        -1.86933535       -0.47238916        1.74639422
 16        -1.84775061       -2.13489600        1.66563533
  6         2.46300823        1.34734058       -1.47971635
  7         3.50027656        1.53199769       -1.97080614
  6         1.18138291        3.20380343        0.23926289
  7         1.63755399        4.23424730        0.52390216
  6        -0.34453110       -3.40329647       -0.28167439
  7        -0.00777625       -4.40990967       -0.75540633
  6         0.28895306       -0.45254605        7.60040131
  6         1.14417983       -0.73134106        6.49736587
 16        -0.62120070        1.03392916        7.82518613
 16         1.40722767        0.37569537        5.14094982
  6        -0.97016019        1.45603638        6.13871797
  6        -0.16309535        1.19481111        5.07662017
  6         0.33858227       -1.49682539        8.50168973
  7         1.79818375       -1.86706857        6.51354990
 16         1.44609684       -2.69413545        7.91458954
  6        -2.19794807        2.16233293        5.98132750
  7        -3.19460539        2.75584142        5.90639497
  6        -0.51680256        1.62062713        3.76227095
  7        -0.75054325        1.97378372        2.67987923
  6        -0.34391536       -1.62632809        9.73562429
  7        -0.88881456       -1.74526186       10.75544561

@aug-cc-pVTZ.gbs/N

