%Chk=BLIND01220
%Mem=2GB
%NProcShared=16
#T M05/Gen test Massage Symmetry=None SCF=(tight,maxcyc=60)

M05 opt

0 1
  6        -0.04412224        0.69472514        0.74600209
  6         0.82989017        1.05317113       -0.31863186
 16        -0.38769982       -0.94917422        1.26375296
 16         1.69796431       -0.11550966       -1.32621354
  6        -0.26993285       -1.80565690       -0.28437186
  6         0.55913856       -1.47336936       -1.30900333
  6        -0.52501917        1.83582447        1.35586575
  7         1.02233880        2.33122538       -0.53634929
 16         0.16482595        3.22265123        0.57762942
  6        -1.11857578       -2.94825698       -0.35758304
  7        -1.80926917       -3.88320303       -0.36098352
  6         0.61041682       -2.25963195       -2.49774368
  7         0.70638318       -2.88709019       -3.47140314
  6        -1.40847148        1.93802731        2.45778909
  7        -2.12526864        2.04062503        3.36705883
  6        -0.89451913       -0.47547803        6.93960656
  6        -1.01812001        0.91919718        7.19540052
 16         0.45159737       -1.23597599        6.10406490
 16         0.19500927        2.12387254        6.73533210
  6         1.78131041       -0.17409226        6.60245054
  6         1.67662280        1.15821064        6.85075185
  6        -2.02528736       -1.13078206        7.38372711
  7        -2.11754903        1.33003941        7.77877391
 16        -3.12793839        0.03358988        8.04192560
  6         3.03480138       -0.84739914        6.68312194
  7         4.03775480       -1.43430397        6.71176049
  6         2.82163049        1.93292551        7.20106055
  7         3.73143003        2.60808092        7.46059109
  6        -2.32316490       -2.51354588        7.31738238
  7        -2.58820971       -3.64398149        7.26295362

@aug-cc-pVTZ.gbs/N

