%Chk=BLIND01432
%Mem=2GB
%NProcShared=16
#T M05/Gen test Massage Symmetry=None SCF=(tight,maxcyc=60)

M05 opt

0 1
  6         0.18730531        0.48926760       -0.87558143
  6         0.26459679       -0.92779270       -0.98417612
 16        -0.85579706        1.36391549        0.23592437
 16        -0.66609143       -2.05213733        0.01795008
  6        -0.88240570        0.23839301        1.60581969
  6        -0.80833202       -1.11589408        1.51602199
  6         1.00257140        1.07260534       -1.82445524
  7         1.05209860       -1.41949375       -1.90934150
 16         1.75462355       -0.17538092       -2.76348368
  6        -1.03947410        0.89092228        2.86304868
  7        -1.19252275        1.46599865        3.86157574
  6        -0.88650850       -1.93525168        2.68070370
  7        -0.97509306       -2.64242618        3.59884483
  6         1.21536167        2.45021865       -2.07359435
  7         1.39481069        3.57649503       -2.29808374
  6        -0.77248465       -0.37667786        8.06299106
  6        -0.41654323        0.95591111        8.41418759
 16        -0.61375564       -1.07758244        6.45922845
 16         0.28209795        2.12688903        7.28489597
  6         0.82794185       -0.22542741        5.87659457
  6         1.17975859        1.04584501        6.20482539
  6        -1.32747752       -1.01206398        9.15549763
  7        -0.65592170        1.33958016        9.64437295
 16        -1.37776108        0.09796873       10.48595826
  6         1.60132525       -0.99604197        4.96055911
  7         2.18546004       -1.65353828        4.20050768
  6         2.33889080        1.65655742        5.64145623
  7         3.25719995        2.20361467        5.18498849
  6        -1.82637059       -2.33436559        9.24377346
  7        -2.24875037       -3.41369575        9.33173737

@aug-cc-pVTZ.gbs/N

