%Chk=CH400115
%Mem=2GB
%NProcShared=16
#T M05/Gen test Massage SCF=(tight,maxcyc=20)

M05 opt

0 1
  6         0.00000000        0.00000000        0.00000000
  1         1.07878036        0.00000000        0.24943716
  1        -0.55818915        0.55912330        0.77575252
  1        -0.15121272        0.48389091       -0.98436287
  1        -0.36937849       -1.04301422       -0.04082681
  6-Bq        0.00000000       0.00000000       3.30547086
  1-Bq       -0.16409473       0.26657967       2.24340017
  1-Bq        0.33827113      -1.05208094       3.37391271
  1-Bq        0.77259918       0.66496635       3.73778581
  1-Bq       -0.94677558       0.12053493       3.86678475

@aug-cc-pVTZ.gbs/N

