%Chk=CH400130
%Mem=2GB
%NProcShared=16
#T M05/Gen test Massage Symmetry=None SCF=(tight,maxcyc=60)

M05 opt

0 1
  6         0.00000000        0.00000000        0.00000000
  1         0.99644201        0.00000000        0.48279320
  1        -0.21292166        1.00747185       -0.40700220
  1        -0.01132387       -0.74053610       -0.82308202
  1        -0.77219648       -0.26693575        0.74729102
  6         0.00000000        0.00000000        4.35867224
  1        -0.96953381       -0.15389748        4.87083014
  1         0.80951503        0.06129161        5.11160962
  1         0.19519303       -0.84893975        3.67516149
  1        -0.03517426        0.94154562        3.77708770

@aug-cc-pVTZ.gbs/N

