%Chk=CH400110
%Mem=2GB
%NProcShared=16
#T M05/Gen test Massage SCF=(tight,maxcyc=40)

M05 opt

0 1
  6         0.00000000        0.00000000        0.00000000
  1         1.04968352        0.00000000       -0.35234993
  1        -0.04159726       -0.38881131        1.03589642
  1        -0.39689096        1.03341894       -0.02255687
  1        -0.61119530       -0.64460763       -0.66098961
  0        -0.69459098        0.00000000        0.23315512
  0         0.02752551        0.25728215       -0.68546785
  0         0.26262857       -0.68382847        0.01492621
  0         0.40443689        0.42654632        0.43738652
  6         0.00000000        0.00000000        3.27944288
  1         0.65947261       -0.82226168        2.94037421
  1        -0.41851151       -0.24873753        4.27390943
  1         0.58505500        0.93745959        3.34920053
  1        -0.82601609        0.13353963        2.55428735
  0        -0.43638270        0.54410262        3.50380959
  0         0.27693521        0.16459327        2.62138978
  0        -0.38713948       -0.62033076        3.23328322
  0         0.54658696       -0.08836513        3.75928893

@aug-cc-pVTZ.gbs/N

