%Chk=CH400145
%Mem=2GB
%NProcShared=16
#T M05/Gen test Massage SCF=(tight,maxcyc=40)

M05 opt

0 1
  6         0.00000000        0.00000000        0.00000000
  1         0.42394953        0.00000000        1.02286497
  1         0.06160239        1.02054675       -0.42505932
  1         0.57369191       -0.70050275       -0.63730640
  1        -1.05924382       -0.32004401        0.03950075
  0        -0.28053362        0.00000000       -0.67684476
  0        -0.04076320       -0.67531076        0.28126799
  0        -0.37962035        0.46353294        0.42171500
  0         0.70091718        0.21177781       -0.02613822
  6         0.00000000        0.00000000        3.37091037
  1         0.31730743       -1.03029835        3.11834894
  1         0.19285468        0.19298468        4.44401332
  1         0.57155016        0.72307685        2.75733377
  1        -1.08171226        0.11423682        3.16394544
  0        -0.20996698        0.68176353        3.53803397
  0        -0.12761477       -0.12770079        2.66082240
  0        -0.37820313       -0.47847056        3.77692300
  0         0.71578487       -0.07559218        3.50786210

@aug-cc-pVTZ.gbs/N

