%Chk=CH400164
%Mem=2GB
%NProcShared=16
#T M05/Gen test Massage Symmetry=None SCF=(tight,maxcyc=60)

M05 opt

0 1
  6-Bq        0.00000000       0.00000000       0.00000000
  1-Bq        1.09543319       0.00000000       0.16128263
  1-Bq       -0.47018005       0.75484348       0.65964232
  1-Bq       -0.21740565       0.24706402      -1.05720391
  1-Bq       -0.40784749      -1.00190750       0.23627896
  6         0.00000000        0.00000000        2.43142976
  1        -0.23446968       -0.95588159        1.92418197
  1        -0.93432898        0.45217952        2.81685031
  1         0.69315623       -0.18951850        3.27380921
  1         0.47564242        0.69322056        1.71087755

@aug-cc-pVTZ.gbs/N

