%Chk=CH400155
%Mem=2GB
%NProcShared=16
#T M05/Gen test Massage SCF=(tight,maxcyc=20)

M05 opt

0 1
  6         0.00000000        0.00000000        0.00000000
  1         0.08102683        0.00000000       -1.10427379
  1         0.81589438       -0.61274304        0.42993986
  1         0.08076767        1.03830966        0.37599945
  1        -0.97768888       -0.42556662        0.29833449
  6         0.00000000        0.00000000        3.63880999
  1         0.04906736        1.10474285        3.58293874
  1        -1.04379698       -0.33177289        3.47632746
  1         0.65225944       -0.43833409        2.85880563
  1         0.34247018       -0.33463586        4.63716812

@aug-cc-pVTZ.gbs/N

