%Chk=CH400105
%Mem=2GB
%NProcShared=16
#T M05/Gen test Massage SCF=(tight,maxcyc=40)

M05 opt

0 1
  6         0.00000000        0.00000000        0.00000000
  1         0.80351197        0.00000000        0.76180999
  1        -0.58093088       -0.93951276        0.07629583
  1        -0.67109614        0.86385130        0.17139680
  1         0.44851504        0.07566146       -1.00950263
  0        -0.53169566        0.00000000       -0.50410085
  0         0.38441048        0.62168937       -0.05048607
  0         0.44407416       -0.57162308       -0.11341578
  0        -0.29678898       -0.05006630        0.66800270
  6         0.00000000        0.00000000        2.93944950
  1        -0.93457884        0.58581870        2.84267761
  1        -0.15670821       -1.01567159        2.52733336
  1         0.81134935        0.50431274        2.37965770
  1         0.27993770       -0.07445985        4.00812933
  0         0.61842453       -0.38764483        3.00348488
  0         0.10369612        0.67208479        3.21215280
  0        -0.53688176       -0.33371114        3.30987195
  0        -0.18523888        0.04927117        2.23228838

@aug-cc-pVTZ.gbs/N

