%Chk=CH400062
%Mem=2GB
%NProcShared=16
#T M05/Gen test Massage Symmetry=None SCF=(tight,maxcyc=60)

M05 opt

0 1
  6         0.00000000        0.00000000        0.00000000
  1         0.85381971        0.00000000       -0.70496657
  1        -0.86715396       -0.50259373       -0.47056297
  1         0.28379070       -0.54108791        0.92340277
  1        -0.27045645        1.04368164        0.25212677
  6         0.00000000        0.00000000        3.27633452
  1        -0.83267198        0.37763607        2.65180723
  1         0.28239893        0.77026223        4.01992910
  1        -0.32074767       -0.92028698        3.80186164
  1         0.87102072       -0.22761132        2.63174011

@aug-cc-pVTZ.gbs/N

