%Chk=CH400198
%Mem=2GB
%NProcShared=16
#T M05/Gen test Massage Symmetry=None SCF=(tight,maxcyc=60)

M05 opt

0 1
  6         0.00000000        0.00000000        0.00000000
  1         0.91747694        0.00000000        0.61985645
  1        -0.72354971       -0.73005965        0.41167304
  1        -0.45090990        1.01123695        0.00812680
  1         0.25698266       -0.28117731       -1.03965628
  0        -0.60710795        0.00000000       -0.41016810
  0         0.47878345        0.48309118       -0.27241009
  0         0.29837369       -0.66915033       -0.00537762
  0        -0.17004920        0.18605915        0.68795581
  6         0.00000000        0.00000000        3.76973052
  1        -0.60613061       -0.89211727        3.51929408
  1         0.20399248        0.57828819        2.84780005
  1        -0.55549658        0.63394343        4.48773137
  1         0.95763471       -0.32011435        4.22409658
  0         0.40108552        0.59032709        3.93544799
  0        -0.13498482       -0.38266178        4.37978543
  0         0.36758024       -0.41948967        3.29461882
  0        -0.63368094        0.21182436        3.46906983

@aug-cc-pVTZ.gbs/N

