%Chk=CH400056
%Mem=2GB
%NProcShared=16
#T M05/Gen test Massage Symmetry=None SCF=(tight,maxcyc=60)

M05 opt

0 1
  6         0.00000000        0.00000000        0.00000000
  1         1.05857120        0.00000000        0.32467365
  1        -0.64429388        0.31928015        0.84198072
  1        -0.12605995        0.70109746       -0.84767753
  1        -0.28821737       -1.02037761       -0.31897684
  0        -0.70047209        0.00000000       -0.21484132
  0         0.42633871       -0.21127236       -0.55715100
  0         0.08341572       -0.46392647        0.56092066
  0         0.19071766        0.67519883        0.21107166
  6         0.00000000        0.00000000        3.43169444
  1         0.75935736       -0.79648760        3.55404585
  1        -0.31354268        0.05121822        2.37100898
  1        -0.87878079       -0.22733153        4.06576908
  1         0.43296611        0.97260091        3.73595383
  0        -0.50247790        0.52704752        3.35073271
  0         0.20747579       -0.03389185        4.13356556
  0         0.58150214        0.15042861        3.01211794
  0        -0.28650003       -0.64358429        3.23036153

@aug-cc-pVTZ.gbs/N

