%Chk=CH400055
%Mem=2GB
%NProcShared=16
#T M05/Gen test Massage SCF=(tight,maxcyc=20)

M05 opt

0 1
  6         0.00000000        0.00000000        0.00000000
  1         0.27585259        0.00000000       -1.07232985
  1         0.91882895        0.02189845        0.61746237
  1        -0.61570741        0.89291156        0.22270899
  1        -0.57897413       -0.91481001        0.23215848
  6         0.00000000        0.00000000        3.81493359
  1        -0.78678008        0.72247825        4.10646100
  1         0.11110452       -0.76465434        4.60799442
  1        -0.28466206       -0.49227705        2.86487213
  1         0.96033762        0.53445314        3.68040680

@aug-cc-pVTZ.gbs/N

