%Chk=CH400160
%Mem=2GB
%NProcShared=16
#T M05/Gen test Massage SCF=(tight,maxcyc=40)

M05 opt

0 1
  6         0.00000000        0.00000000        0.00000000
  1         0.43134461        0.00000000        1.01976849
  1         0.69527236       -0.50970186       -0.69482826
  1        -0.96985074       -0.53412117        0.00949030
  1        -0.15676623        1.04382303       -0.33443053
  0        -0.28542706        0.00000000       -0.67479577
  0        -0.46007192        0.33727720        0.45977805
  0         0.64176446        0.35343581       -0.00627987
  0         0.10373451       -0.69071301        0.22129759
  6         0.00000000        0.00000000        2.99673724
  1        -0.84465987        0.71127919        3.07808565
  1        -0.02924050       -0.49610640        2.00728821
  1         0.95583924        0.54795103        3.10676895
  1        -0.08193887       -0.76312382        3.79480617
  0         0.55892383       -0.47066388        2.94290781
  0         0.01934887        0.32828088        3.65147018
  0        -0.63249285       -0.36258723        2.92392765
  0         0.05422015        0.50497023        2.46864333

@aug-cc-pVTZ.gbs/N

