%Chk=CH400188
%Mem=2GB
%NProcShared=16
#T M05/Gen test Massage Symmetry=None SCF=(tight,maxcyc=60)

M05 opt

0 1
  6         0.00000000        0.00000000        0.00000000
  1         0.95739189        0.00000000        0.55622543
  1        -0.70871265        0.69881334        0.48515178
  1         0.17967881        0.32220997       -1.04397424
  1        -0.42835804       -1.02102331        0.00259703
  0        -0.63352026        0.00000000       -0.36806253
  0         0.46896556       -0.46241503       -0.32103205
  0        -0.11889610       -0.21321107        0.69081307
  0         0.28345080        0.67562610       -0.00171849
  6         0.00000000        0.00000000        3.73630032
  1        -0.51768245       -0.97852596        3.75815841
  1        -0.61678074        0.73148675        3.17907989
  1         0.15326846        0.35968462        4.77221620
  1         0.98119474       -0.11264541        3.23574678
  0         0.34255807        0.64750498        3.72183650
  0         0.40813286       -0.48403551        4.10502125
  0        -0.10141999       -0.23800859        3.05081959
  0        -0.64927095        0.07453912        4.06752394

@aug-cc-pVTZ.gbs/N

