%Chk=CH400263
%Mem=2GB
%NProcShared=16
#T M05/Gen test Massage SCF=(tight,maxcyc=40)

M05 opt

0 1
  6-Bq        0.00000000       0.00000000       0.00000000
  1-Bq        0.97997608       0.00000000       0.51539580
  1-Bq        0.15921221      -0.01481243      -1.09563590
  1-Bq       -0.57556525      -0.89656249       0.30147355
  1-Bq       -0.56362304       0.91137492       0.27876655
  6         0.00000000        0.00000000        4.03127832
  1        -0.00174248       -0.01388070        5.13843244
  1        -1.02439321        0.20259855        3.66309583
  1         0.68451207        0.79322259        3.67319019
  1         0.34162362       -0.98194044        3.65039482

@aug-cc-pVTZ.gbs/N

