%Chk=CH400156
%Mem=2GB
%NProcShared=16
#T M05/Gen test Massage Symmetry=None SCF=(tight,maxcyc=60)

M05 opt

0 1
  6         0.00000000        0.00000000        0.00000000
  1         0.83238677        0.00000000        0.73014945
  1        -0.41505422        1.02285353       -0.08652522
  1         0.37546854       -0.33072821       -0.98773892
  1        -0.79280109       -0.69212532        0.34411470
  0        -0.55080254        0.00000000       -0.48315060
  0         0.27464746       -0.67683718        0.05725501
  0        -0.24845304        0.21884771        0.65360133
  0         0.52460811        0.45798947       -0.22770574
  6         0.00000000        0.00000000        4.82403632
  1        -1.06254443        0.25482725        5.00305687
  1         0.24021792       -0.95615100        5.32807656
  1         0.17682144       -0.10186369        3.73576066
  1         0.64550507        0.80318744        5.22925120
  0         0.70310124       -0.16862293        4.70557580
  0        -0.15895572        0.63269914        4.49050550
  0        -0.11700534        0.06740470        5.54416429
  0        -0.42714018       -0.53148091        4.55589969

@aug-cc-pVTZ.gbs/N

