%Chk=CH400046
%Mem=2GB
%NProcShared=16
#T M05/Gen test Massage SCF=(tight,maxcyc=40)

M05 opt

0 1
  6         0.00000000        0.00000000        0.00000000
  1         0.21455012        0.00000000        1.08625697
  1        -0.61792414        0.88292519       -0.25416296
  1         0.95183054        0.04088199       -0.56421027
  1        -0.54845652       -0.92380718       -0.26788373
  0        -0.14197096        0.00000000       -0.71879217
  0         0.40888947       -0.58424455        0.16818336
  0        -0.62984023       -0.02705221        0.37334621
  0         0.36292172        0.61129676        0.17726260
  6         0.00000000        0.00000000        4.41004696
  1        -0.16233991        1.08129297        4.23558426
  1        -0.34783397       -0.26607812        5.42700316
  1        -0.56867472       -0.58419773        3.66084202
  1         1.07884859       -0.23101711        4.31675838
  0         0.10742270       -0.71550742        4.52549148
  0         0.23016684        0.17606780        3.73711212
  0         0.37630040        0.38657221        4.90580685
  0        -0.71388994        0.15286741        4.47177738

@aug-cc-pVTZ.gbs/N

