%Chk=CH400283
%Mem=2GB
%NProcShared=16
#T M05/Gen test Massage SCF=(tight,maxcyc=40)

M05 opt

0 1
  6         0.00000000        0.00000000        0.00000000
  1         1.10086735        0.00000000       -0.11864665
  1        -0.37921517        1.03763005       -0.07420030
  1        -0.45711714       -0.61789518       -0.79701658
  1        -0.26453504       -0.41973487        0.98986353
  0        -0.72846008        0.00000000        0.07851023
  0         0.25093224       -0.68661503        0.04909943
  0         0.30248111        0.40887030        0.52739756
  0         0.17504672        0.27774472       -0.65500722
  6         0.00000000        0.00000000        4.36518130
  1        -0.42348748       -1.02177344        4.41639998
  1         0.00424474        0.34546239        3.31321948
  1        -0.61724199        0.68642582        4.97658777
  1         1.03648473       -0.01011478        4.75451798
  0         0.28022788        0.67612247        4.33128915
  0        -0.00280881       -0.22859753        5.06127987
  0         0.40843808       -0.45421804        3.96060468
  0        -0.68585715        0.00669310        4.10755151

@aug-cc-pVTZ.gbs/N

