%Chk=CH400053
%Mem=2GB
%NProcShared=16
#T M05/Gen test Massage Symmetry=None SCF=(tight,maxcyc=60)

M05 opt

0 1
  6-Bq        0.00000000       0.00000000       0.00000000
  1-Bq        0.87740548       0.00000000       0.67538551
  1-Bq       -0.06394085      -0.97437163      -0.52201288
  1-Bq       -0.92144427       0.16272640       0.59198525
  1-Bq        0.10797964       0.81164523      -0.74535788
  6         0.00000000        0.00000000        3.00128688
  1         0.94945959       -0.23855169        2.48398086
  1        -0.39405732       -0.91266233        3.48888535
  1         0.18254738        0.77826639        3.76742253
  1        -0.73794966        0.37294763        2.26485880

@aug-cc-pVTZ.gbs/N

