%Chk=CH400173
%Mem=2GB
%NProcShared=16
#T M05/Gen test Massage SCF=(tight,maxcyc=20)

M05 opt

0 1
  6         0.00000000        0.00000000        0.00000000
  1         0.89066887        0.00000000        0.65779550
  1         0.07662979        0.83334407       -0.72501827
  1        -0.05490032       -0.96116925       -0.54692375
  1        -0.91239834        0.12782518        0.61414652
  6-Bq        0.00000000       0.00000000       2.99819526
  1-Bq       -0.70770293       0.76177687       2.61761870
  1-Bq       -0.47220816      -1.00024125       2.94796734
  1-Bq        0.91762066       0.00647417       2.37858541
  1-Bq        0.26229043       0.23199021       4.04860957

@aug-cc-pVTZ.gbs/N

