%Chk=CH400112
%Mem=2GB
%NProcShared=16
#T M05/Gen test Massage Symmetry=None SCF=(tight,maxcyc=60)

M05 opt

0 1
  6         0.00000000        0.00000000        0.00000000
  1         1.09075162        0.00000000        0.19038609
  1        -0.22461857        0.66075173       -0.85961596
  1        -0.33467416       -1.03028967       -0.22909029
  1        -0.53145889        0.36953794        0.89832016
  0        -0.72176635        0.00000000       -0.12598127
  0         0.14863340       -0.43722911        0.56882049
  0         0.22145880        0.68175779        0.15159240
  0         0.35167414       -0.24452867       -0.59443163
  6         0.00000000        0.00000000        2.54368316
  1         0.14822391       -0.00280410        3.64095604
  1        -0.31934545        1.00859287        2.21696484
  1         0.95044655       -0.26670062        2.04217734
  1        -0.77932500       -0.73908814        2.27463444
  0        -0.09808193        0.00185552        1.81760161
  0         0.21131557       -0.66740070        2.75987747
  0        -0.62892442        0.17647971        2.87553693
  0         0.51569078        0.48906547        2.72171665

@aug-cc-pVTZ.gbs/N

