%Chk=CH400040
%Mem=2GB
%NProcShared=16
#T M05/Gen test Massage SCF=(tight,maxcyc=40)

M05 opt

0 1
  6         0.00000000        0.00000000        0.00000000
  1         0.94882013        0.00000000       -0.57072437
  1        -0.58976529       -0.89902017       -0.26443447
  1         0.22178605       -0.00999619        1.08475665
  1        -0.58084089        0.90901636       -0.24959780
  0        -0.62784820        0.00000000        0.37765669
  0         0.39025634        0.59489484        0.17498017
  0        -0.14675908        0.00661463       -0.71779938
  0         0.38435094       -0.60150946        0.16516253
  6         0.00000000        0.00000000        4.01740701
  1        -0.57736182       -0.87331090        3.65689717
  1         1.07270484       -0.14510221        3.78452158
  1        -0.36583080        0.91684532        3.51586095
  1        -0.12951223        0.10156780        5.11234834
  0         0.38204879        0.57788264        4.25596166
  0        -0.70982453        0.09601626        4.17151071
  0         0.24207561       -0.60668999        4.34928739
  0         0.08570014       -0.06720890        3.29286827

@aug-cc-pVTZ.gbs/N

