%Chk=CH400121
%Mem=2GB
%NProcShared=16
#T M05/Gen test Massage SCF=(tight,maxcyc=20)

M05 opt

0 1
  6         0.00000000        0.00000000        0.00000000
  1         1.06439789        0.00000000       -0.30502966
  1        -0.48165046       -0.93687712       -0.34096928
  1        -0.06785567        0.06966555        1.10296341
  1        -0.51489176        0.86721157       -0.45696446
  0        -0.70432769        0.00000000        0.20184260
  0         0.31871517        0.61994533        0.22562438
  0         0.04490109       -0.04609871       -0.72984706
  0         0.34071143       -0.57384662        0.30238009
  6         0.00000000        0.00000000        2.90830327
  1         0.81095322        0.17273266        3.64213176
  1         0.29101461       -0.81925689        2.22265423
  1        -0.92857282       -0.27866509        3.44317170
  1        -0.17339501        0.92518932        2.32525538
  0        -0.53661964       -0.11429973        2.42271819
  0        -0.19256863        0.54211430        3.36200729
  0         0.61445026        0.18439678        2.55437298
  0         0.11473802       -0.61221135        3.29411461

@aug-cc-pVTZ.gbs/N

