%Chk=CH400057
%Mem=2GB
%NProcShared=16
#T M05/Gen test Massage SCF=(tight,maxcyc=40)

M05 opt

0 1
  6         0.00000000        0.00000000        0.00000000
  1         0.86818830        0.00000000       -0.68719359
  1        -0.02611055        0.95383598        0.56169487
  1        -0.93371215       -0.10953309       -0.58495305
  1         0.09163440       -0.84430289        0.71045177
  6-Bq        0.00000000       0.00000000       4.09298654
  1-Bq        0.40730105      -0.86986364       4.64383050
  1-Bq       -0.86550678      -0.32223686       3.48221050
  1-Bq       -0.32527767       0.77437131       4.81446381
  1-Bq        0.78348341       0.41772918       3.43144135

@aug-cc-pVTZ.gbs/N

