%Chk=CH400294
%Mem=2GB
%NProcShared=16
#T M05/Gen test Massage SCF=(tight,maxcyc=40)

M05 opt

0 1
  6         0.00000000        0.00000000        0.00000000
  1         0.90977888        0.00000000        0.63110089
  1        -0.82585309        0.49911328        0.54299039
  1         0.20440596        0.54447637       -0.94220467
  1        -0.28833175       -1.04358965       -0.23188661
  6-Bq        0.00000000       0.00000000       3.73674034
  1-Bq       -0.55150605      -0.58857399       4.49529666
  1-Bq        1.04026464      -0.37247088       3.66531992
  1-Bq       -0.49824541      -0.10586073       2.75361727
  1-Bq        0.00948682       1.06690560       4.03272750

@aug-cc-pVTZ.gbs/N

