%Chk=CH400304
%Mem=2GB
%NProcShared=16
#T M05/Gen test Massage SCF=(tight,maxcyc=40)

M05 opt

0 1
  6         0.00000000        0.00000000        0.00000000
  1         1.10686635        0.00000000        0.02885908
  1        -0.39189917        0.56112469        0.87036779
  1        -0.34481787        0.48178816       -0.93539658
  1        -0.37014931       -1.04291284        0.03616971
  6-Bq        0.00000000       0.00000000       3.38447185
  1-Bq        0.70964841       0.82416408       3.59217033
  1-Bq        0.46146534      -0.71456418       2.67564625
  1-Bq       -0.24471739      -0.52319800       4.32912163
  1-Bq       -0.92639636       0.41359810       2.94094919

@aug-cc-pVTZ.gbs/N

