%Chk=CH400254
%Mem=2GB
%NProcShared=16
#T M05/Gen test Massage Symmetry=None SCF=(tight,maxcyc=60)

M05 opt

0 1
  6         0.00000000        0.00000000        0.00000000
  1         1.06140879        0.00000000       -0.31527345
  1        -0.47699946       -0.95003394       -0.30966590
  1        -0.05793589        0.10031629        1.10116576
  1        -0.52647343        0.84971765       -0.47622641
  6-Bq        0.00000000       0.00000000       5.29191377
  1-Bq        0.09714731       1.02317993       5.70380112
  1-Bq       -0.12324044       0.05470729       4.19291202
  1-Bq        0.91017580      -0.58274683       5.53268775
  1-Bq       -0.88408266      -0.49514039       5.73825422

@aug-cc-pVTZ.gbs/N

