%Chk=CH400033
%Mem=2GB
%NProcShared=16
#T M05/Gen test Massage SCF=(tight,maxcyc=40)

M05 opt

0 1
  6         0.00000000        0.00000000        0.00000000
  1         0.51765985        0.00000000       -0.97878202
  1        -0.68337271       -0.86939102        0.05609765
  1         0.74841920       -0.06574770        0.81334612
  1        -0.58270633        0.93513872        0.10933825
  6-Bq        0.00000000       0.00000000       4.01141736
  1-Bq       -0.95537421       0.55963778       4.01860277
  1-Bq        0.38398252      -0.08800408       5.04621138
  1-Bq       -0.16774723      -1.01121662       3.59274354
  1-Bq        0.73913892       0.53958292       3.38811176

@aug-cc-pVTZ.gbs/N

