%Chk=CH400260
%Mem=2GB
%NProcShared=16
#T M05/Gen test Massage SCF=(tight,maxcyc=40)

M05 opt

0 1
  6         0.00000000        0.00000000        0.00000000
  1         0.68175711        0.00000000        0.87246387
  1        -1.03343542        0.20731437        0.33914294
  1         0.31730928        0.78239560       -0.71635041
  1         0.03436903       -0.98970997       -0.49525640
  6-Bq        0.00000000       0.00000000       3.71317576
  1-Bq       -0.32777287      -0.52723081       2.79634504
  1-Bq       -0.10629777      -0.67451231       4.58479487
  1-Bq        1.06015601       0.30119216       3.60669354
  1-Bq       -0.62608538       0.90055096       3.86486960

@aug-cc-pVTZ.gbs/N

