%Chk=CH400222
%Mem=2GB
%NProcShared=16
#T M05/Gen test Massage SCF=(tight,maxcyc=40)

M05 opt

0 1
  6         0.00000000        0.00000000        0.00000000
  1         0.93435671        0.00000000        0.59410731
  1        -0.01871626        0.89000781       -0.65842368
  1        -0.04425254       -0.91748516       -0.61826260
  1        -0.87138791        0.02747735        0.68257898
  6-Bq        0.00000000       0.00000000       3.80157128
  1-Bq        0.06106471      -0.79523034       4.56959846
  1-Bq       -0.97304136      -0.06700447       3.27746550
  1-Bq        0.08975148       0.99060047       4.28802922
  1-Bq        0.82222517      -0.12836566       3.07119193

@aug-cc-pVTZ.gbs/N

