%Chk=CH400104
%Mem=2GB
%NProcShared=16
#T M05/Gen test Massage SCF=(tight,maxcyc=40)

M05 opt

0 1
  6         0.00000000        0.00000000        0.00000000
  1         1.10466392        0.00000000        0.07552206
  1        -0.29724186       -0.08263616       -1.06339292
  1        -0.40859229       -0.85990466        0.56533378
  1        -0.39882977        0.94254082        0.42253708
  6-Bq        0.00000000       0.00000000       3.04702117
  1-Bq        0.08608921       1.10346249       3.07776436
  1-Bq       -0.22560246      -0.32392276       2.01253408
  1-Bq        0.95480130      -0.45400161       3.37599378
  1-Bq       -0.81528805      -0.32553812       3.72179245

@aug-cc-pVTZ.gbs/N

