%Chk=CH400291
%Mem=2GB
%NProcShared=16
#T M05/Gen test Massage SCF=(tight,maxcyc=40)

M05 opt

0 1
  6         0.00000000        0.00000000        0.00000000
  1         0.85256929        0.00000000        0.70647828
  1         0.16381725       -0.77249809       -0.77614210
  1        -0.93505195       -0.22182907        0.54995970
  1        -0.08133459        0.99432716       -0.48029588
  6-Bq        0.00000000       0.00000000       3.11333067
  1-Bq        0.93840189      -0.29153012       3.62362278
  1-Bq        0.18838026       0.88068018       2.46920238
  1-Bq       -0.35876496      -0.84253108       2.49090394
  1-Bq       -0.76801719       0.25338101       3.86959360

@aug-cc-pVTZ.gbs/N

