%Chk=CH400247
%Mem=2GB
%NProcShared=16
#T M05/Gen test Massage SCF=(tight,maxcyc=40)

M05 opt

0 1
  6-Bq        0.00000000       0.00000000       0.00000000
  1-Bq        0.84815920       0.00000000      -0.71176676
  1-Bq        0.38526425      -0.09984040       1.03324213
  1-Bq       -0.56113002       0.94983569      -0.09450512
  1-Bq       -0.67229344      -0.84999529      -0.22697025
  6         0.00000000        0.00000000        4.91284156
  1        -0.63381774       -0.49904988        5.67126773
  1         0.73637469       -0.72384434        4.51310710
  1        -0.63669130        0.37279319        4.08722944
  1         0.53413436        0.85010103        5.37976198

@aug-cc-pVTZ.gbs/N

