%Chk=CH400218
%Mem=2GB
%NProcShared=16
#T M05/Gen test Massage SCF=(tight,maxcyc=40)

M05 opt

0 1
  6-Bq        0.00000000       0.00000000       0.00000000
  1-Bq        0.93834959       0.00000000       0.58778057
  1-Bq        0.19781160      -0.40573946      -1.01105490
  1-Bq       -0.75461132      -0.63011021       0.50942010
  1-Bq       -0.38154988       1.03584968      -0.08614577
  6         0.00000000        0.00000000        2.89029228
  1         0.20659974        0.63410056        3.77415821
  1        -0.22304509        0.64427609        2.01785594
  1         0.88631155       -0.62597253        2.66984686
  1        -0.86986620       -0.65240412        3.09930810

@aug-cc-pVTZ.gbs/N

