%Chk=CH400051
%Mem=2GB
%NProcShared=16
#T M05/Gen test Massage SCF=(tight,maxcyc=40)

M05 opt

0 1
  6-Bq        0.00000000       0.00000000       0.00000000
  1-Bq        1.07864807       0.00000000      -0.25000857
  1-Bq       -0.41216568       1.01757712      -0.14367398
  1-Bq       -0.53222152      -0.71059682      -0.66164823
  1-Bq       -0.13426088      -0.30698030       1.05533078
  6         0.00000000        0.00000000        3.91311578
  1         1.03879605       -0.06665505        3.53569582
  1        -0.12403665       -0.68363190        4.77523427
  1        -0.21062756        1.03899105        4.23267732
  1        -0.70413184       -0.28870410        3.10885572

@aug-cc-pVTZ.gbs/N

