%Chk=CH400029
%Mem=2GB
%NProcShared=16
#T M05/Gen test Massage Symmetry=None SCF=(tight,maxcyc=60)

M05 opt

0 1
  6-Bq        0.00000000       0.00000000       0.00000000
  1-Bq        1.01125962       0.00000000       0.45093230
  1-Bq       -0.48237591      -0.98106778       0.17551480
  1-Bq       -0.61045950       0.79948935       0.46275473
  1-Bq        0.08157579       0.18157843      -1.08920183
  6         0.00000000        0.00000000        4.24641838
  1        -0.99287452       -0.01698929        3.75662505
  1         0.53524225        0.92710386        3.96361083
  1        -0.13010601       -0.03039067        5.34557023
  1         0.58773828       -0.87972390        3.91986740

@aug-cc-pVTZ.gbs/N

