%Chk=CH400273
%Mem=2GB
%NProcShared=16
#T M05/Gen test Massage SCF=(tight,maxcyc=40)

M05 opt

0 1
  6-Bq        0.00000000       0.00000000       0.00000000
  1-Bq        0.85756223       0.00000000       0.70040915
  1-Bq       -0.71830499       0.78892397       0.29601161
  1-Bq        0.36256151       0.19758801      -1.02737242
  1-Bq       -0.50181875      -0.98651198       0.03095165
  6         0.00000000        0.00000000        3.18196860
  1        -0.60673434        0.86934969        2.86245253
  1         0.95766032        0.35534504        3.60928882
  1        -0.55482665       -0.57580705        3.94786650
  1         0.20390066       -0.64888767        2.30826656

@aug-cc-pVTZ.gbs/N

