%Chk=CH400105
%Mem=2GB
%NProcShared=16
#T M05/Gen test Massage SCF=(tight,maxcyc=40)

M05 opt

0 1
  6-Bq        0.00000000       0.00000000       0.00000000
  1-Bq        0.80351197       0.00000000       0.76180999
  1-Bq       -0.58093088      -0.93951276       0.07629583
  1-Bq       -0.67109614       0.86385130       0.17139680
  1-Bq        0.44851504       0.07566146      -1.00950263
  6         0.00000000        0.00000000        2.93944950
  1        -0.93457884        0.58581870        2.84267761
  1        -0.15670821       -1.01567159        2.52733336
  1         0.81134935        0.50431274        2.37965770
  1         0.27993770       -0.07445985        4.00812933

@aug-cc-pVTZ.gbs/N

