%Chk=CH400216
%Mem=2GB
%NProcShared=16
#T M05/Gen test Massage SCF=(tight,maxcyc=40)

M05 opt

0 1
  6-Bq        0.00000000       0.00000000       0.00000000
  1-Bq        0.98511389       0.00000000      -0.50550627
  1-Bq        0.03758977      -0.66874685       0.88167489
  1-Bq       -0.24694286       1.02856879       0.32718713
  1-Bq       -0.77576079      -0.35982195      -0.70335576
  6         0.00000000        0.00000000        2.85830957
  1        -0.97902404        0.13732203        3.35694826
  1         0.73696195       -0.38222146        3.59096214
  1        -0.10672971       -0.72599283        2.02913580
  1         0.34879179        0.97089225        2.45619208

@aug-cc-pVTZ.gbs/N

