%Chk=C2H4_1
Density=Checkpoint
%Mem=6GB
%NProcShared=16
#T M05/Gen test Massage SCF=(tight,maxcyc=20)

M05 opt

0 1
 C3        0.66807781003          0.00000000000          3.50000000000
 C4       -0.66807781003          0.00000000000          3.50000000000
 H5        1.23491924972          0.00000000000          4.42453298021
 H6        1.23491924972          0.00000000000          2.57546701979
 H7       -1.23491924972          0.00000000000          4.42453298021
 H8       -1.23491924972          0.00000000000          2.57546701979
 C1        0.00000000000          0.66807781003          0.00000000000
 C2        0.00000000000         -0.66807781003          0.00000000000
 H1        0.00000000000          1.23491924972          0.92453298021
 H2        0.00000000000          1.23491924972         -0.92453298021
 H3        0.00000000000         -1.23491924972          0.92453298021
 H4        0.00000000000         -1.23491924972         -0.92453298021

@aug-cc-pVTZ.gbs/N

