%Chk=N2_HF_1
%Mem=6GB
%NProcShared=16
#T M05/Gen test Massage SCF=(tight,maxcyc=20)

M05 opt

0 1
 H1        0.00000000000          0.00000000000          2.28943872478
 F1        0.00000000000          0.00000000000          3.22203954133
 N1        0.00000000000          0.00000000000         -0.55073063835
 N2        0.00000000000          0.00000000000          0.55073063835

@aug-cc-pVTZ.gbs/N

