%Chk=NH3_ClFB_1
%Mem=6GB
%NProcShared=16
#T M05/Gen test Massage SCF=(tight,maxcyc=20)

M05 opt

0 1
 Cl        0.00000000000          0.00000000000          2.11506466783
  F        0.00000000000          0.00000000000          3.81601275207
  N-Bq         0.00000000000          0.00000007516          0.06331021969
 H1-Bq         0.00000000000          0.94960494425         -0.29327851544
 H2-Bq         0.82238219159         -0.47480299440         -0.29327851544
 H3-Bq        -0.82238219159         -0.47480299440         -0.29327851544

@aug-cc-pVTZ.gbs/N

