%Chk=CH400198
%Mem=2GB
%NProcShared=16
#T M05/Gen test Massage Symmetry=None SCF=(tight,maxcyc=60)

M05 opt

0 1
  6         0.00000000        0.00000000        0.00000000
  1         0.91747694        0.00000000        0.61985645
  1        -0.72354971       -0.73005965        0.41167304
  1        -0.45090990        1.01123695        0.00812680
  1         0.25698266       -0.28117731       -1.03965628
  6-Bq        0.00000000       0.00000000       3.76973052
  1-Bq       -0.60613061      -0.89211727       3.51929408
  1-Bq        0.20399248       0.57828819       2.84780005
  1-Bq       -0.55549658       0.63394343       4.48773137
  1-Bq        0.95763471      -0.32011435       4.22409658

@aug-cc-pVTZ.gbs/N

