%Chk=CH400197
%Mem=2GB
%NProcShared=16
#T M05/Gen test Massage Symmetry=None SCF=(tight,maxcyc=60)

M05 opt

0 1
  6         0.00000000        0.00000000        0.00000000
  1         0.70266861        0.00000000        0.85571186
  1         0.28438702        0.79965924       -0.71109429
  1         0.04167747       -0.98097745       -0.51179311
  1        -1.02873310        0.18131821        0.36717554
  6-Bq        0.00000000       0.00000000       3.23936516
  1-Bq       -0.74720306       0.65943227       3.72188214
  1-Bq       -0.47726086      -0.55035730       2.40550973
  1-Bq        0.83460738       0.61290360       2.84723552
  1-Bq        0.38985654      -0.72197857       3.98283324

@aug-cc-pVTZ.gbs/N

