%Chk=CH400282
%Mem=2GB
%NProcShared=16
#T M05/Gen test Massage Symmetry=None SCF=(tight,maxcyc=60)

M05 opt

0 1
  6         0.00000000        0.00000000        0.00000000
  1         1.09733974        0.00000000        0.14775467
  1        -0.47216047        0.67397902        0.74081221
  1        -0.23470075        0.35340036       -1.02274615
  1        -0.39047852       -1.02737939        0.13417928
  6-Bq        0.00000000       0.00000000       4.10070396
  1-Bq       -0.07389459       0.61132543       3.18048292
  1-Bq       -0.31156013      -1.03921063       3.87944050
  1-Bq        1.04649259       0.00248626       4.46241244
  1-Bq       -0.66103787       0.42539894       4.88047997

@aug-cc-pVTZ.gbs/N

