%Chk=CH400092
%Mem=2GB
%NProcShared=16
#T M05/Gen test Massage Symmetry=None SCF=(tight,maxcyc=60)

M05 opt

0 1
  6         0.00000000        0.00000000        0.00000000
  1         0.94214977        0.00000000        0.58166981
  1         0.07404012       -0.73757077       -0.82249218
  1        -0.84365334       -0.27099270        0.66392617
  1        -0.17253656        1.00856347       -0.42310380
  6-Bq        0.00000000       0.00000000       3.37993854
  1-Bq        1.04854624      -0.35431200       3.41155725
  1-Bq       -0.09468656       0.80595789       2.62664425
  1-Bq       -0.66575388      -0.84127027       3.10603699
  1-Bq       -0.28810580       0.38962439       4.37551568

@aug-cc-pVTZ.gbs/N

