%Chk=CH400223
%Mem=2GB
%NProcShared=16
#T M05/Gen test Massage Symmetry=None SCF=(tight,maxcyc=60)

M05 opt

0 1
  6         0.00000000        0.00000000        0.00000000
  1         0.62009024        0.00000000        0.91731895
  1         0.65482841        0.09153907       -0.88814768
  1        -0.57178211       -0.94634681       -0.05898219
  1        -0.70313655        0.85480773        0.02981093
  6-Bq        0.00000000       0.00000000       4.60545746
  1-Bq        0.32045528      -1.02427257       4.33313400
  1-Bq        0.83266672       0.70731366       4.42557009
  1-Bq       -0.87132982       0.29074727       3.98720482
  1-Bq       -0.28179218       0.02621164       5.67592095

@aug-cc-pVTZ.gbs/N

