%Chk=CH400018
%Mem=2GB
%NProcShared=16
#T M05/Gen test Massage Symmetry=None SCF=(tight,maxcyc=60)

M05 opt

0 1
  6         0.00000000        0.00000000        0.00000000
  1         0.72618979        0.00000000        0.83584350
  1         0.29363544       -0.76562112       -0.74403527
  1        -1.01043874       -0.23175612        0.38895835
  1        -0.00938649        0.99737724       -0.48076658
  6-Bq        0.00000000       0.00000000       3.67154741
  1-Bq       -0.99080702       0.36168182       3.33468889
  1-Bq        0.53269325      -0.46446083       2.81919772
  1-Bq        0.59254910       0.85227295       4.05690743
  1-Bq       -0.13443533      -0.74949394       4.47539562

@aug-cc-pVTZ.gbs/N

