%Chk=CH400199
%Mem=2GB
%NProcShared=16
#T M05/Gen test Massage Symmetry=None SCF=(tight,maxcyc=60)

M05 opt

0 1
  6         0.00000000        0.00000000        0.00000000
  1         0.97192954        0.00000000        0.53041392
  1        -0.45497216       -1.00746616        0.06323156
  1        -0.67643729        0.74055142        0.46904387
  1         0.15947991        0.26691474       -1.06268934
  6-Bq        0.00000000       0.00000000       3.63545272
  1-Bq        0.10625135       0.91175098       3.01625423
  1-Bq        0.45522194       0.17394891       4.62968645
  1-Bq       -1.07399116      -0.23975941       3.75810822
  1-Bq        0.51251787      -0.84594048       3.13776196

@aug-cc-pVTZ.gbs/N

