%Chk=CH400186
%Mem=2GB
%NProcShared=16
#T M05/Gen test Massage Symmetry=None SCF=(tight,maxcyc=60)

M05 opt

0 1
  6         0.00000000        0.00000000        0.00000000
  1         1.09243154        0.00000000        0.18049732
  1        -0.48395938       -0.74131358        0.66499884
  1        -0.40889123        1.00718221        0.21066069
  1        -0.19958093       -0.26586863       -1.05615684
  6-Bq        0.00000000       0.00000000       4.10029381
  1-Bq       -0.85057583       0.15711875       3.40904826
  1-Bq        0.95185801       0.12841153       3.54941927
  1-Bq       -0.05237055       0.73834449       4.92375644
  1-Bq       -0.04891163      -1.02387476       4.51895128

@aug-cc-pVTZ.gbs/N

